Generated by rsspolymlp
1.0
   2.882761632716119 0.000000000000000 0.000000000000000
   -0.242518609656965 9.217096960729613 0.000000000000000
   1.100248450436113 0.223916431836355 9.565197227063306
Al  Cu  
2  1  
Direct
   0.000000000000000 0.000000000000000 0.000000000000000
   0.571976298001381 0.022692353119381 0.618847180384502
   0.917098470403380 0.991349358703509 0.697103463281765
