Generated by rsspolymlp
1.0
   1.891549629030855 0.000000000000000 0.000000000000000
   0.066069224160729 9.451446857506962 0.000000000000000
   0.792959588280160 2.566257127382886 10.829298718167438
Al  Cu  
2  1  
Direct
   0.000000000000000 0.000000000000000 0.000000000000000
   0.571672861321050 0.119315722670086 0.009219659659829
   0.984306026706270 0.926788972188476 0.381505495149275
