Generated by rsspolymlp
1.0
   2.128910951312010 0.000000000000000 0.000000000000000
   0.305845578529067 5.658690406226201 0.000000000000000
   0.125751367860242 1.958599469467638 6.270380545438897
Al  
1  
Direct
   0.000000000000000 0.000000000000000 0.000000000000000
