Generated by rsspolymlp
1.0
   2.580823259956403 0.000000000000000 0.000000000000000
   -0.324715389755831 4.794385431914280 0.000000000000000
   1.048291970695486 0.990891429260498 7.366724603126003
Al  
1  
Direct
   0.000000000000000 0.000000000000000 0.000000000000000
