Generated by rsspolymlp
1.0
   3.181071865259980 0.000000000000000 0.000000000000000
   1.373014467397966 4.010091327887794 0.000000000000000
   1.110658550307059 1.050671505777371 6.329584307518350
Al  
1  
Direct
   0.000000000000000 0.000000000000000 0.000000000000000
