Generated by rsspolymlp
1.0
   2.376323559769733 0.000000000000000 0.000000000000000
   -1.119073728040004 11.648679826507669 0.000000000000000
   -0.853493423647799 -0.165096183385341 11.827854236654119
 Cu  
 4  
Direct
   0.808674627151828 0.923219576333148 0.774117122549328
   0.637980723654589 0.631257652609094 0.681676032492894
   0.121686425659433 0.716384612590794 0.524692752341412
   0.244797483400301 0.749411769154030 0.824159271678247
