Generated by rsspolymlp
1.0
   2.797263713409216 0.000000000000000 0.000000000000000
   -1.398631856704608 2.422501436896775 0.000000000000000
   0.000000000000000 0.000000000000000 25.165705792202537
 Al  
 6  
Direct
   0.000000000000000 0.000000000000000 0.118736672802541
   0.666666666666667 0.333333333333333 0.214596660530792
   0.666666666666667 0.333333333333333 0.452070006135874
   0.333333333333333 0.666666666666667 0.547929993864126
   0.333333333333333 0.666666666666667 0.785403339469208
   0.000000000000000 0.000000000000000 0.881263327197459
