Generated by rsspolymlp
1.0
   2.797263678963605 0.000000000000000 0.000000000000000
   -1.398631839481802 2.422501407066000 0.000000000000000
   0.000000000000000 0.000000000000000 25.165710259033965
 Al  
 6  
Direct
   0.333333333333333 0.666666666666667 0.047929988971579
   0.333333333333333 0.666666666666667 0.285403344361754
   0.000000000000000 0.000000000000000 0.381263322304913
   0.000000000000000 0.000000000000000 0.618736677695087
   0.666666666666667 0.333333333333333 0.714596655638246
   0.666666666666667 0.333333333333333 0.952070011028421
