Generated by rsspolymlp
1.0
   2.726136950429942 0.000000000000000 0.000000000000000
   -1.363068475214971 2.360903853267769 0.000000000000000
   0.000000000000000 0.000000000000000 18.336210655056636
 Al  Cu  
 3  6  
Direct
   0.666666666666667 0.333333333333333 0.024507644989870
   0.333333333333333 0.666666666666667 0.357840978323204
   0.000000000000000 0.000000000000000 0.691174311656537
   0.000000000000000 0.000000000000000 0.246890942828279
   0.333333333333333 0.666666666666667 0.135836227380594
   0.666666666666667 0.333333333333333 0.580224276161612
   0.000000000000000 0.000000000000000 0.469169560713927
   0.333333333333333 0.666666666666667 0.913557609494946
   0.666666666666667 0.333333333333333 0.802502894047261
