Generated by rsspolymlp
1.0
   3.061254536758014 0.000000000000000 0.000000000000000
   0.000000000000000 3.061254536758014 0.000000000000000
   0.000000000000000 0.000000000000000 8.197707257842575
 Al  Cu  
 2  4  
Direct
   0.500000000000000 0.500000000000000 0.000000000000000
   0.000000000000000 0.000000000000000 0.500000000000000
   0.000000000000000 0.000000000000000 0.833256128288928
   0.500000000000000 0.500000000000000 0.666743871711072
   0.500000000000000 0.500000000000000 0.333256128288927
   0.000000000000000 0.000000000000000 0.166743871711073
