Generated by rsspolymlp
1.0
   2.720304281505107 0.000000000000000 0.000000000000000
   -1.360152140752553 2.355852613806997 0.000000000000000
   0.000000000000000 0.000000000000000 18.295762621781279
 Al  Cu  
 3  6  
Direct
   0.333333333333333 0.666666666666667 0.166666666666667
   -0.000000000000000 -0.000000000000000 0.500000000000000
   0.666666666666667 0.333333333333333 0.833333333333333
   0.000000000000000 0.000000000000000 0.278155730954966
   0.666666666666667 0.333333333333333 0.055177602378368
   0.666666666666667 0.333333333333333 0.611489064288299
   0.333333333333333 0.666666666666667 0.388510935711701
   0.333333333333333 0.666666666666667 0.944822397621632
   0.000000000000000 0.000000000000000 0.721844269045034
