Generated by rsspolymlp
1.0
   3.723492705520723 0.000000000000000 0.000000000000000
   0.000000000000000 3.723505188410448 0.000000000000000
   0.000000000000000 0.000000000000000 18.138147057546561
 Al  Cu  
 4  8  
Direct
   0.500000000000000 0.000000000000000 0.140494414551786
   0.500000000000000 0.500000000000000 0.640494414551786
   0.000000000000000 0.000000000000000 0.640494414551786
   0.000000000000000 0.500000000000000 0.140494414551786
   0.500000000000000 0.000000000000000 0.337966283954450
   0.000000000000000 0.000000000000000 0.242199830612994
   0.500000000000000 0.500000000000000 0.837966283954450
   0.000000000000000 0.500000000000000 0.742199830612994
   0.000000000000000 0.000000000000000 0.837966283954450
   0.500000000000000 0.000000000000000 0.742199830612994
   0.000000000000000 0.500000000000000 0.337966283954450
   0.500000000000000 0.500000000000000 0.242199830612994
