Generated by rsspolymlp
1.0
   3.061254658974311 0.000000000000000 0.000000000000000
   0.000000000000000 3.061254658974311 0.000000000000000
   0.000000000000000 0.000000000000000 8.197705917879251
 Al  Cu  
 2  4  
Direct
   0.000000000000000 0.000000000000000 0.000000000000000
   0.500000000000000 0.500000000000000 0.500000000000000
   0.500000000000000 0.500000000000000 0.166743871339745
   0.000000000000000 0.000000000000000 0.333256128660255
   0.000000000000000 0.000000000000000 0.666743871339745
   0.500000000000000 0.500000000000000 0.833256128660255
