Generated by rsspolymlp
1.0
   2.720304274209152 0.000000000000000 0.000000000000000
   -1.360152137104576 2.355852607488515 0.000000000000000
   0.000000000000000 0.000000000000000 18.295765600985629
 Al  Cu  
 3  6  
Direct
   0.333333333333333 0.666666666666667 0.166666666666667
   -0.000000000000000 -0.000000000000000 0.500000000000000
   0.666666666666667 0.333333333333333 0.833333333333333
   0.666666666666667 0.333333333333333 0.055177603253715
   0.000000000000000 0.000000000000000 0.278155730079619
   0.333333333333333 0.666666666666667 0.388510936587048
   0.666666666666667 0.333333333333333 0.611489063412952
   0.000000000000000 0.000000000000000 0.721844269920381
   0.333333333333333 0.666666666666667 0.944822396746285
