Generated by rsspolymlp
1.0
   3.061254251975598 0.000000000000000 0.000000000000000
   0.000000000000000 3.061254251975598 0.000000000000000
   0.000000000000000 0.000000000000000 8.197708509430017
 Al  Cu  
 2  4  
Direct
   0.000000000000000 0.000000000000000 0.000000000000000
   0.500000000000000 0.500000000000000 0.500000000000000
   0.000000000000000 0.000000000000000 0.333256126198959
   0.500000000000000 0.500000000000000 0.166743873801041
   0.500000000000000 0.500000000000000 0.833256126198959
   0.000000000000000 0.000000000000000 0.666743873801041
