Generated by rsspolymlp
1.0
   3.061254651112996 0.000000000000000 0.000000000000000
   0.000000000000000 3.061254651112996 0.000000000000000
   0.000000000000000 0.000000000000000 8.197706982970120
 Al  Cu  
 2  4  
Direct
   0.500000000000000 0.500000000000000 0.000000000000000
   0.000000000000000 0.000000000000000 0.500000000000000
   0.000000000000000 0.000000000000000 0.166743870274862
   0.500000000000000 0.500000000000000 0.333256129725138
   0.500000000000000 0.500000000000000 0.666743870274862
   0.000000000000000 0.000000000000000 0.833256129725138
