Generated by rsspolymlp
1.0
   2.720304133365580 0.000000000000000 0.000000000000000
   -1.360152066682790 2.355852485514404 0.000000000000000
   0.000000000000000 0.000000000000000 18.295768301186381
 Al  Cu  
 3  6  
Direct
   0.333333333333333 0.666666666666667 0.166666666666667
   -0.000000000000000 -0.000000000000000 0.500000000000000
   0.666666666666667 0.333333333333333 0.833333333333333
   0.666666666666667 0.333333333333333 0.055177603675663
   0.000000000000000 0.000000000000000 0.278155729657670
   0.333333333333333 0.666666666666667 0.388510937008996
   0.666666666666667 0.333333333333333 0.611489062991004
   0.000000000000000 0.000000000000000 0.721844270342330
   0.333333333333333 0.666666666666667 0.944822396324337
