Generated by rsspolymlp
1.0
   2.638277342873054 0.000000000000000 0.000000000000000
   -1.319138671436527 2.284815201156972 0.000000000000000
   0.000000000000000 0.000000000000000 29.020374027655080
 Al  Cu  
 3  6  
Direct
   0.666666666666667 0.333333333333333 0.135950379185497
   0.333333333333333 0.666666666666667 0.469283712518831
   0.000000000000000 0.000000000000000 0.802617045852164
   0.333333333333333 0.666666666666667 0.063128185058405
   0.666666666666667 0.333333333333333 0.325891114777354
   0.000000000000000 0.000000000000000 0.396461518391738
   0.333333333333333 0.666666666666667 0.659224448110688
   0.666666666666667 0.333333333333333 0.729794851725071
   0.000000000000000 0.000000000000000 0.992557781444021
