Generated by rsspolymlp
1.0
   2.726137213459407 0.000000000000000 0.000000000000000
   -1.363068606729704 2.360904081057967 0.000000000000000
   0.000000000000000 0.000000000000000 18.336206226185496
 Al  Cu  
 3  6  
Direct
   0.666666666666667 0.333333333333333 0.244821767058179
   0.333333333333333 0.666666666666667 0.578155100391513
   0.000000000000000 0.000000000000000 0.911488433724846
   0.666666666666667 0.333333333333333 0.022817016056653
   0.333333333333333 0.666666666666667 0.133871731506494
   0.333333333333333 0.666666666666667 0.356150349389986
   0.000000000000000 0.000000000000000 0.467205064839827
   0.000000000000000 0.000000000000000 0.689483682723319
   0.666666666666667 0.333333333333333 0.800538398173160
