Generated by rsspolymlp
1.0
   2.632911269993606 0.000000000000000 0.000000000000000
   0.000000000000000 2.632911269993606 0.000000000000000
   0.000000000000000 0.000000000000000 18.138158101516133
 Al  Cu  
 2  4  
Direct
   0.000000000000000 0.000000000000000 0.125757963359318
   0.500000000000000 0.500000000000000 0.625757963359318
   0.500000000000000 0.500000000000000 0.227463350199119
   0.000000000000000 0.000000000000000 0.323229753728529
   0.000000000000000 0.000000000000000 0.727463350199119
   0.500000000000000 0.500000000000000 0.823229753728529
