Generated by rsspolymlp
1.0
   3.061254611410169 0.000000000000000 0.000000000000000
   0.000000000000000 3.061254611410169 0.000000000000000
   0.000000000000000 0.000000000000000 8.197706928139386
 Al  Cu  
 2  4  
Direct
   0.500000000000000 0.500000000000000 0.000000000000000
   0.000000000000000 0.000000000000000 0.500000000000000
   0.000000000000000 0.000000000000000 0.166743869582640
   0.500000000000000 0.500000000000000 0.333256130417360
   0.500000000000000 0.500000000000000 0.666743869582640
   0.000000000000000 0.000000000000000 0.833256130417360
