Generated by rsspolymlp
1.0
   4.559845950418260 0.000000000000000 0.000000000000000
   0.000000000000000 2.632628611384283 0.000000000000000
   -0.000059707147449 0.000000000000000 9.671820924771485
 Al  Cu  
 2  4  
Direct
   0.489549375248192 0.000000000000000 0.889942927846503
   0.989549375248192 0.500000000000000 0.889942927846503
   0.489554662931078 0.000000000000000 0.319279558894419
   0.822885429706448 0.000000000000000 0.107456987948200
   0.989554662931078 0.500000000000000 0.319279558894419
   0.322885429706448 0.500000000000000 0.107456987948200
