Generated by rsspolymlp
1.0
   3.723492139087219 0.000000000000000 0.000000000000000
   0.000000000000000 3.723504976833699 0.000000000000000
   0.000000000000000 0.000000000000000 18.138168700956768
 Al  Cu  
 4  8  
Direct
   0.500000000000000 0.000000000000000 0.230310647214393
   0.500000000000000 0.500000000000000 0.730310647214393
   0.000000000000000 0.000000000000000 0.730310647214393
   0.000000000000000 0.500000000000000 0.230310647214393
   0.000000000000000 0.000000000000000 0.128605280860520
   0.500000000000000 0.000000000000000 0.032838916915696
   0.000000000000000 0.500000000000000 0.628605280860520
   0.500000000000000 0.500000000000000 0.532838916915696
   0.500000000000000 0.000000000000000 0.628605280860520
   0.000000000000000 0.000000000000000 0.532838916915696
   0.500000000000000 0.500000000000000 0.128605280860520
   0.000000000000000 0.500000000000000 0.032838916915696
