Generated by rsspolymlp
1.0
   3.061254372455296 0.000000000000000 0.000000000000000
   0.000000000000000 3.061254372455296 0.000000000000000
   0.000000000000000 0.000000000000000 8.197708363993108
 Al  Cu  
 2  4  
Direct
   0.500000000000000 0.500000000000000 0.000000000000000
   0.000000000000000 0.000000000000000 0.500000000000000
   0.000000000000000 0.000000000000000 0.166743870409996
   0.500000000000000 0.500000000000000 0.333256129590004
   0.500000000000000 0.500000000000000 0.666743870409996
   0.000000000000000 0.000000000000000 0.833256129590004
