Generated by rsspolymlp
1.0
   3.061254684738040 0.000000000000000 0.000000000000000
   0.000000000000000 3.061254684738040 0.000000000000000
   0.000000000000000 0.000000000000000 8.197706973788232
 Al  Cu  
 2  4  
Direct
   0.500000000000000 0.500000000000000 0.500000000000000
   0.000000000000000 0.000000000000000 0.000000000000000
   0.500000000000000 0.500000000000000 0.833256130105212
   0.000000000000000 0.000000000000000 0.666743869894788
   0.000000000000000 0.000000000000000 0.333256130105211
   0.500000000000000 0.500000000000000 0.166743869894789
