Generated by rsspolymlp
1.0
   2.071094436483803 0.000000000000000 0.000000000000000
   -0.258428723563147 5.465015180263580 0.000000000000000
   0.822189971440947 2.654041067451864 7.790919756753651
Al  
2  
Direct
   0.000000000000000 0.000000000000000 0.000000000000000
   0.613189142874838 0.112808323796151 0.854913517113680
