Generated by rsspolymlp
1.0
   2.060395610990697 0.000000000000000 0.000000000000000
   -0.376488164547645 6.260176125124299 0.000000000000000
   0.550685467000714 2.282965145554334 7.607689209407543
Al  
2  
Direct
   0.000000000000000 0.000000000000000 0.000000000000000
   0.725945027627357 0.574410867397907 0.215833797146964
