Generated by rss_polymlp
1.0
   2.648419239677779 0.000000000000000 0.000000000000000
   -1.324207704868692 7.978809059473219 0.000000000000000
   -0.244912627633061 -1.898866491041533 11.049013723891662
 Al  Cu  
 4  3  
Direct
   0.011635826978807 0.122010709046438 0.923859551203818
   0.925268438432980 0.910177409327571 0.135254754349595
   0.753159137502092 0.599322641758937 0.954863843510501
   0.779703022637543 0.604332714941494 0.214818309916434
   0.556777844090579 0.173726845723064 0.132388453928217
   0.380024082443380 0.857710981168225 0.929676162009031
   0.164954258440996 0.403200003401238 0.061449622143901
