Generated by rsspolymlp
1.0
   2.893093322992038 0.000000000000000 0.000000000000000
   0.644412440132950 7.493223609718446 0.000000000000000
   0.677839704920989 3.209632096910087 10.346748707126304
Al  
4  
Direct
   0.000000000000000 0.000000000000000 0.000000000000000
   0.503893804239738 0.033730087785998 0.511257133551610
   0.241585258744319 0.852290337248849 0.239560980655418
   0.891159366532192 0.065232765143379 0.191687498254879
