Generated by rsspolymlp
1.0
   2.905827348625579 0.000000000000000 0.000000000000000
   -1.150622830828440 8.140359191609907 0.000000000000000
   0.621954682284356 3.300943301206548 9.008316188097396
Al  Cu  
1  2  
Direct
   0.000000000000000 0.000000000000000 0.000000000000000
   0.870916949963620 0.946819120021488 0.915955051888856
   0.804620694512343 0.366317937214169 0.886883658454236
