Generated by rsspolymlp
1.0
   3.395676180691763 0.000000000000000 0.000000000000000
   -0.884852339041804 5.730807006395060 0.000000000000000
   1.495213893572960 1.408912776044531 8.133585666717423
Al  Cu  
1  2  
Direct
   0.000000000000000 0.000000000000000 0.000000000000000
   0.835588320494730 0.382925697591611 0.724625160041634
   0.685450874703932 0.632195807230190 0.908790784142354
