Generated by rsspolymlp
1.0
   3.043653979761320 0.000000000000000 0.000000000000000
   1.499423265619575 6.677944812735489 0.000000000000000
   1.475375987110000 0.667315803777313 11.240241969653306
Al  Cu  
1  2  
Direct
   0.000000000000000 0.000000000000000 0.000000000000000
   0.277890116030563 0.186770134658953 0.553519339275296
   0.644041708858518 0.249678156540578 0.723867609135411
