Generated by rsspolymlp
1.0
   3.228946152408851 0.000000000000000 0.000000000000000
   -0.597137158237673 7.877495801888314 0.000000000000000
   0.424867218964188 1.269207577984102 8.371418923685162
Al  Cu  
1  2  
Direct
   0.000000000000000 0.000000000000000 0.000000000000000
   0.693580784787340 0.997113509176673 0.504388839466885
   0.881791954704363 0.273893090176054 0.853346107098322
