Generated by rsspolymlp
1.0
   2.783911658438980 0.000000000000000 0.000000000000000
   -1.391955829219490 2.410938218099824 0.000000000000000
   0.000000000000000 0.000000000000000 12.336148561228786
 Al  Cu  
 3  3  
Direct
   0.000000000000000 0.000000000000000 0.000000000000000
   0.666666666666667 0.333333333333333 0.333333333333333
   0.333333333333333 0.666666666666667 0.666666666666667
   0.333333333333333 0.666666666666667 0.166666666666667
   -0.000000000000000 -0.000000000000000 0.500000000000000
   0.666666666666667 0.333333333333333 0.833333333333333
