Generated by rsspolymlp
1.0
   2.783911514417605 0.000000000000000 0.000000000000000
   -1.391955757208802 2.410938093373654 0.000000000000000
   0.000000000000000 0.000000000000000 12.336147888758029
 Al  Cu  
 3  3  
Direct
   0.000000000000000 0.000000000000000 0.000000000000000
   0.666666666666667 0.333333333333333 0.333333333333333
   0.333333333333333 0.666666666666667 0.666666666666667
   0.333333333333333 0.666666666666667 0.166666666666667
   -0.000000000000000 -0.000000000000000 0.500000000000000
   0.666666666666667 0.333333333333333 0.833333333333333
