Generated by rsspolymlp
1.0
   2.639000899139177 0.000000000000000 0.000000000000000
   -1.319500449569588 2.285441819264502 0.000000000000000
   0.000000000000000 0.000000000000000 22.736228571704629
 Al  Cu  
 3  3  
Direct
   0.666666666666667 0.333333333333333 0.270777956608477
   0.333333333333333 0.666666666666667 0.604111289941811
   0.000000000000000 0.000000000000000 0.937444623275144
   0.000000000000000 0.000000000000000 0.177370784941909
   0.666666666666667 0.333333333333333 0.510704118275243
   0.333333333333333 0.666666666666667 0.844037451608576
