Generated by rsspolymlp
1.0
   2.639000837213706 0.000000000000000 0.000000000000000
   -1.319500418606853 2.285441765635472 0.000000000000000
   0.000000000000000 0.000000000000000 22.736231520975551
 Al  Cu  
 3  3  
Direct
   0.666666666666667 0.333333333333333 0.320898861753579
   0.333333333333333 0.666666666666667 0.654232195086912
   0.000000000000000 0.000000000000000 0.987565528420246
   0.000000000000000 0.000000000000000 0.227491693747121
   0.666666666666667 0.333333333333333 0.560825027080454
   0.333333333333333 0.666666666666667 0.894158360413787
