Generated by rsspolymlp
1.0
   2.783911276000610 0.000000000000000 0.000000000000000
   -1.391955638000305 2.410937886898480 0.000000000000000
   0.000000000000000 0.000000000000000 12.336148073907818
 Al  Cu  
 3  3  
Direct
   0.333333333333333 0.666666666666667 0.166666666666667
   -0.000000000000000 -0.000000000000000 0.500000000000000
   0.666666666666667 0.333333333333333 0.833333333333333
   0.000000000000000 0.000000000000000 0.000000000000000
   0.666666666666667 0.333333333333333 0.333333333333333
   0.333333333333333 0.666666666666667 0.666666666666667
