Generated by rsspolymlp
1.0
   2.783911660634596 0.000000000000000 0.000000000000000
   -1.391955830317298 2.410938220001283 0.000000000000000
   0.000000000000000 0.000000000000000 12.336150352980958
 Al  Cu  
 3  3  
Direct
   0.333333333333333 0.666666666666667 0.166666666666667
   -0.000000000000000 -0.000000000000000 0.500000000000000
   0.666666666666667 0.333333333333333 0.833333333333333
   0.000000000000000 0.000000000000000 0.000000000000000
   0.666666666666667 0.333333333333333 0.333333333333333
   0.333333333333333 0.666666666666667 0.666666666666667
