Generated by rsspolymlp
1.0
   2.783911869176873 0.000000000000000 0.000000000000000
   -1.391955934588436 2.410938400604192 0.000000000000000
   0.000000000000000 0.000000000000000 12.336146112403163
 Al  Cu  
 3  3  
Direct
   0.000000000000000 0.000000000000000 0.000000000000000
   0.666666666666667 0.333333333333333 0.333333333333333
   0.333333333333333 0.666666666666667 0.666666666666667
   0.333333333333333 0.666666666666667 0.166666666666667
   -0.000000000000000 -0.000000000000000 0.500000000000000
   0.666666666666667 0.333333333333333 0.833333333333333
