Generated by rss_polymlp
1.0
   2.655873940611306 0.000000000000000 0.000000000000000
   0.000000317025329 6.443299134004792 0.000000000000000
   0.000015201294048 2.980380507023391 11.393939268953236
 Al  Cu  
 3  5  
Direct
   0.047194966423568 0.898782466303062 0.265790503149340
   0.547195636090321 0.651229175013340 0.145316269615386
   0.047194551799218 0.467469239872976 0.365332757258750
   0.047196649160524 0.819849429616269 0.962165610036638
   0.547196267377499 0.475111720195967 0.974727191123282
   0.547195891481819 0.064399164353729 0.060585422391961
   0.547194322757349 0.151648016900424 0.347296204020117
   0.047195576864114 0.309667957410511 0.157931501817147
