Generated by rss_polymlp
1.0
   2.696819614277806 0.000000000000000 0.000000000000000
   1.348409390197273 4.634729920354335 0.000000000000000
   0.000019647513458 0.112136075511786 12.231566489887262
 Al  Cu  
 3  5  
Direct
   0.306750718837592 0.675538955084858 0.059113108420948
   0.575278853125297 0.138482518554952 0.153945958837598
   0.032933139315891 0.223175704324128 0.935937829281819
   0.871274524179028 0.546489664019498 0.243156169061651
   0.760938597196552 0.767164892427808 0.885623454287924
   0.157138868316475 0.974760143650386 0.314286957301919
   0.426924987170217 0.435193427506234 0.761527025128339
   0.153140895368653 0.982761415898569 0.731631321742774
