Generated by rss_polymlp
1.0
   2.737252211970508 0.000000000000000 0.000000000000000
   0.000000000000000 2.737252211970508 0.000000000000000
   0.000000000000000 0.000000000000000 14.543949588160720
 Al  Cu  
 3  5  
Direct
   0.500000000000000 0.500000000000000 0.356950963953725
   0.500000000000000 0.500000000000000 0.643049036046275
   0.000000000000000 0.000000000000000 0.500000000000000
   0.000000000000000 0.000000000000000 0.764202790867650
   0.500000000000000 0.500000000000000 0.115393874141445
   0.000000000000000 0.000000000000000 0.235797209132350
   0.000000000000000 0.000000000000000 0.000000000000000
   0.500000000000000 0.500000000000000 0.884606125858555
