Generated by rsspolymlp
1.0
   6.325943054810105 0.000000000000000 0.000000000000000
   2.542653271366256 5.929165712229532 0.000000000000000
   0.910895895136979 -0.062304774042642 8.722708921413606
Al  Cu  
1  3  
Direct
   0.000000000000000 0.000000000000000 0.000000000000000
   0.149653659363398 0.103213184571905 0.998669391014823
   0.914588129760814 0.304375471147912 0.661067664351927
   0.750931941437832 0.847101702368536 0.645972849449130
