Generated by rsspolymlp
1.0
   6.137116681449025 0.000000000000000 0.000000000000000
   1.822471375983818 6.149196246793748 0.000000000000000
   0.769131679024460 1.096212606493132 8.586482488281279
Al  Cu  
1  3  
Direct
   0.000000000000000 0.000000000000000 0.000000000000000
   0.024837615069995 0.045423444942182 0.667692281916731
   0.696683052917079 0.097762107082560 0.875235126022460
   0.895152666221517 0.863719560858662 0.013847930482431
