Generated by rsspolymlp
1.0
   2.964048760551279 0.000000000000000 0.000000000000000
   -1.301188862522250 10.601322970595612 0.000000000000000
   1.046162217088403 4.046934325347869 10.616792278669449
Al  Cu  
1  3  
Direct
   0.000000000000000 0.000000000000000 0.000000000000000
   0.633068819392347 0.310795925056057 0.591833871078829
   0.880026636116431 0.379856594455853 0.233004495437798
   0.778099014309897 0.683232696281997 0.214002267830761
