Generated by rsspolymlp
1.0
   0.925337642021506 0.000000000000000 0.000000000000000
   0.327798384787173 5.732909270962990 0.000000000000000
   0.129037894921330 1.041302545267363 9.418844483049631
Al  Cu  
1  3  
Direct
   0.000000000000000 0.000000000000000 0.000000000000000
   0.075472990450343 0.563191864124254 0.531552226589506
   0.836882484562676 0.759375720928610 0.031043297638184
   0.838906963074970 0.787374843685977 0.270659482877614
