Generated by rsspolymlp
1.0
   3.957270624278341 0.000000000000000 0.000000000000000
   0.636026196876679 5.912200593019764 0.000000000000000
   1.367311922049780 -0.078197227267850 12.134467957768825
Al  Cu  
1  3  
Direct
   0.000000000000000 0.000000000000000 0.000000000000000
   0.767634825414426 0.408253954274645 0.145878526344773
   0.847562900029285 0.107176805364118 0.512401690396078
   0.323433952458974 0.046084926798265 0.446105763674074
