Generated by rss_polymlp
1.0
   9.547443642121886 0.000000000000000 0.000000000000000
   0.000000000000000 2.647738155599035 0.000000000000000
   -2.363927827559615 0.000000000000000 8.124292792810973
 Al  Cu  
 4  12  
Direct
   0.222956298284346 0.000000000000000 0.017536229531870
   0.283147108177046 0.500000000000000 0.721528488787150
   0.722956298284346 0.500000000000000 0.017536229531870
   0.783147108177046 0.000000000000000 0.721528488787150
   0.075534196298373 0.000000000000000 0.527629075192680
   0.388921450342067 0.500000000000000 0.256751683303259
   0.030640370631508 0.500000000000000 0.778404417348058
   0.125148835153450 0.500000000000000 0.263093571339802
   0.331409838390053 0.000000000000000 0.484864144692651
   0.457759185996990 0.500000000000000 0.003292247583032
   0.575534196298373 0.500000000000000 0.527629075192680
   0.888921450342067 0.000000000000000 0.256751683303259
   0.530640370631508 0.000000000000000 0.778404417348058
   0.625148835153450 0.000000000000000 0.263093571339802
   0.831409838390053 0.500000000000000 0.484864144692651
   0.957759185996990 0.000000000000000 0.003292247583032
