Generated by rsspolymlp
1.0
   3.533248495007796 0.000000000000000 0.000000000000000
   -0.758909729171837 5.699747107073256 0.000000000000000
   1.127399894898054 2.768617324846347 9.853841566315232
Al  Cu  
2  2  
Direct
   0.000000000000000 0.000000000000000 0.000000000000000
   0.664870289224856 0.522525116191557 0.534137291786991
   0.913569516718186 0.627200496143428 0.105160637181047
   0.529453945135314 0.020655208610099 0.354475619726858
