Generated by rsspolymlp
1.0
   4.031817476209691 0.000000000000000 0.000000000000000
   -0.833865776237273 9.382536711480990 0.000000000000000
   1.837253188416424 2.532944727643000 10.271372333935133
Al  Cu  
2  2  
Direct
   0.000000000000000 0.000000000000000 0.000000000000000
   0.979752534103796 0.537963332213817 0.143375736072759
   0.220652478158783 0.147885270035423 0.228508960914675
   0.419790633080413 0.805558310435302 0.474815498128447
