Generated by rsspolymlp
1.0
   3.535352463814207 0.000000000000000 0.000000000000000
   -0.741142787598063 9.770156875966693 0.000000000000000
   1.526618461628861 4.526129738009063 8.556595907106836
Al  Cu  
2  2  
Direct
   0.000000000000000 0.000000000000000 0.000000000000000
   0.949810787730360 0.047789053968702 0.476151712482295
   0.594036013145576 0.584849588571927 0.197929137115105
   0.521179289541454 0.490957032893572 0.562698497049271
