Generated by rss_polymlp
1.0
   2.804799581195855 0.000000000000000 0.000000000000000
   0.000000000000000 4.715509249770018 0.000000000000000
   -0.000265846837088 0.000000000000000 16.234664980030850
 Al  Z  
 8  0  
Direct
   0.753126887184831 0.500000000000000 0.988885097916019
   0.253148885729193 0.000000000000000 0.221720129225910
   0.253140718102043 0.500000000000000 0.135775261374599
   0.753154425908494 0.500000000000000 0.279717703460723
   0.253177639375179 0.000000000000000 0.525993580442260
   0.753163305755820 0.000000000000000 0.372591360919343
   0.253131800593652 0.000000000000000 0.041514080717478
   0.253168845561923 0.500000000000000 0.430023556030962
