Generated by rss_polymlp
1.0
   2.581505521613715 0.000000000000000 0.000000000000000
   0.000000282621355 6.432465670808743 0.000000000000000
   0.001696589250479 0.597815568007905 11.809124099211228
 Al  Cu  
 2  4  
Direct
   0.750015376994097 0.824404502989778 0.976582812149237
   0.249984623005903 0.175595497010222 0.023417187850763
   0.249940690986705 0.554942478015896 0.090272018202646
   0.750059309013295 0.445057521984104 0.909727981797354
   0.250127790339874 0.722540112531748 0.805505279466027
   0.749872209660126 0.277459887468252 0.194494720533973
