Generated by rsspolymlp
1.0
   9.473142714443551 0.000000000000000 0.000000000000000
   0.000000000000000 2.799472552593782 0.000000000000000
   -1.674199865160680 0.000000000000000 4.078327154084751
 Al  Cu  
 4  4  
Direct
   0.883792578031809 0.500000000000000 0.187261784987336
   0.616207421968191 0.000000000000000 0.812738215012664
   0.383792578031809 0.000000000000000 0.187261784987336
   0.116207421968191 0.500000000000000 0.812738215012664
   0.868654274623593 0.000000000000000 0.682939683073677
   0.631345725376407 0.500000000000000 0.317060316926323
   0.368654274623593 0.500000000000000 0.682939683073677
   0.131345725376407 0.000000000000000 0.317060316926323
