Generated by rsspolymlp
1.0
   2.942591884431788 0.000000000000000 0.000000000000000
   0.000000000000000 2.942591884431788 0.000000000000000
   0.000000000000000 0.000000000000000 13.814640636903240
 Al  Cu  
 4  4  
Direct
   0.000000000000000 0.000000000000000 0.405874781264567
   0.500000000000000 0.500000000000000 0.094125218735433
   0.500000000000000 0.500000000000000 0.905874781264567
   0.000000000000000 0.000000000000000 0.594125218735433
   0.500000000000000 0.500000000000000 0.303003935059186
   0.000000000000000 0.000000000000000 0.196996064940814
   0.000000000000000 0.000000000000000 0.803003935059186
   0.500000000000000 0.500000000000000 0.696996064940814
