Generated by rsspolymlp
1.0
   2.834767851279668 0.000000000000000 0.000000000000000
   0.000000000000000 9.575823716510449 0.000000000000000
   0.000000000000000 0.000000000000000 4.061361711859733
 Al  Cu  
 4  4  
Direct
   0.000000000000000 0.840222839245448 0.750000000000000
   0.500000000000000 0.659777160754552 0.250000000000000
   0.500000000000000 0.340222839245448 0.750000000000000
   0.000000000000000 0.159777160754552 0.250000000000000
   0.000000000000000 0.575330345400983 0.750000000000000
   0.500000000000000 0.924669654599017 0.250000000000000
   0.500000000000000 0.075330345400983 0.750000000000000
   0.000000000000000 0.424669654599017 0.250000000000000
