Generated by rsspolymlp
1.0
   8.556426344948770 0.000000000000000 0.000000000000000
   0.000000000000000 2.899750439518320 0.000000000000000
   -3.931411803329372 0.000000000000000 4.643638986778494
 Al  Cu  
 4  4  
Direct
   0.301484381659319 0.000000000000000 0.865319683391340
   0.708958954050104 0.000000000000000 0.167493667428682
   0.801484381659319 0.500000000000000 0.865319683391340
   0.208958954050104 0.500000000000000 0.167493667428682
   0.946818565467284 0.000000000000000 0.696818253973349
   0.039871907793360 0.500000000000000 0.419282108019860
   0.446818565467284 0.500000000000000 0.696818253973349
   0.539871907793360 0.000000000000000 0.419282108019860
