Generated by rsspolymlp
1.0
   2.942591699442734 0.000000000000000 0.000000000000000
   0.000000000000000 2.942591699442734 0.000000000000000
   0.000000000000000 0.000000000000000 13.814643139527735
 Al  Cu  
 4  4  
Direct
   0.000000000000000 0.000000000000000 0.094125535383144
   0.000000000000000 0.000000000000000 0.905874464616856
   0.500000000000000 0.500000000000000 0.594125535383144
   0.500000000000000 0.500000000000000 0.405874464616856
   0.500000000000000 0.500000000000000 0.803004266399208
   0.500000000000000 0.500000000000000 0.196995733600792
   0.000000000000000 0.000000000000000 0.303004266399208
   0.000000000000000 0.000000000000000 0.696995733600792
