Generated by rsspolymlp
1.0
   3.134068567627166 0.000000000000000 0.000000000000000
   0.000000000000000 13.435224346455056 0.000000000000000
   0.000000000000000 0.000000000000000 2.774754203216273
 Al  Cu  
 4  4  
Direct
   0.000000000000000 0.411415771377116 0.750000000000000
   0.500000000000000 0.088584228622884 0.250000000000000
   0.500000000000000 0.911415771377116 0.750000000000000
   0.000000000000000 0.588584228622884 0.250000000000000
   0.000000000000000 0.195427042206700 0.750000000000000
   0.500000000000000 0.304572957793300 0.250000000000000
   0.500000000000000 0.695427042206700 0.750000000000000
   0.000000000000000 0.804572957793300 0.250000000000000
