Generated by rss_polymlp
1.0
   2.665456110141823 0.000000000000000 0.000000000000000
   -0.000000001651824 4.169598742343891 0.000000000000000
   -0.174728799569475 -0.738361748999197 10.206153505879925
 Al  Cu  
 2  2  
Direct
   0.992542119178310 0.229853673319729 0.386231359461841
   0.007457880821690 0.770146326680271 0.613768640538159
   0.492750244706713 0.730415895362144 0.389406268633945
   0.507249755293287 0.269584104637856 0.610593731366055
