Generated by rsspolymlp
1.0
   2.834767970490996 0.000000000000000 0.000000000000000
   0.000000000000000 9.575823395225321 0.000000000000000
   0.000000000000000 0.000000000000000 4.061361929993367
 Al  Cu  
 4  4  
Direct
   0.000000000000000 0.659777155643275 0.750000000000000
   0.500000000000000 0.840222844356725 0.250000000000000
   0.500000000000000 0.159777155643275 0.750000000000000
   0.000000000000000 0.340222844356725 0.250000000000000
   0.000000000000000 0.924669654432913 0.750000000000000
   0.500000000000000 0.575330345567087 0.250000000000000
   0.500000000000000 0.424669654432913 0.750000000000000
   0.000000000000000 0.075330345567087 0.250000000000000
