Generated by rsspolymlp
1.0
   2.665015612200139 0.000000000000000 0.000000000000000
   -1.332506487406331 4.322749434010711 0.000000000000000
   -0.499292669487552 -1.069845649688074 11.352075311754453
 Al  Cu  
 2  2  
Direct
   0.060190814243299 0.896436749203833 0.857802709244378
   0.749822230541831 0.319731589561871 0.740291041719089
   0.372967753856572 0.487531243433734 0.949769378448272
   0.682302518539296 0.073302270390508 0.037567713000070
