Generated by rsspolymlp
1.0
   11.494529490213683 0.000000000000000 0.000000000000000
   0.000000000000000 2.677235194984108 0.000000000000000
   -1.436185948996152 0.000000000000000 3.800773085923978
 Al  Cu  
 4  4  
Direct
   0.752769419533455 0.000000000000000 0.903098764952610
   0.507222370857538 0.500000000000000 0.657554838665059
   0.252769419533455 0.500000000000000 0.903098764952610
   0.007222370857538 0.000000000000000 0.657554838665059
   0.593453113826066 0.000000000000000 0.243784669475837
   0.806443059605168 0.500000000000000 0.456771726593453
   0.093453113826066 0.500000000000000 0.243784669475837
   0.306443059605168 0.000000000000000 0.456771726593453
