Generated by rsspolymlp
1.0
   3.830685712576114 0.000000000000000 0.000000000000000
   1.019509134658674 5.475280724868252 0.000000000000000
   0.532008998620133 2.321315332683580 11.204823211749513
Cu  
4  
Direct
   0.000000000000000 0.000000000000000 0.000000000000000
   0.840489926687416 0.313652440071174 0.983550308275198
   0.133795239188677 0.029059424771255 0.453150740717695
   0.641326216471590 0.261890501649417 0.086010424044317
