Generated by rsspolymlp
1.0
   3.223318000557950 0.000000000000000 0.000000000000000
   0.323254926125700 4.783521015504266 0.000000000000000
   1.020481859532654 1.140050580526866 5.374587978834263
Cu  
4  
Direct
   0.000000000000000 0.000000000000000 0.000000000000000
   0.712644603037085 0.783837243094700 0.607453471897899
   0.131549932826407 0.265332032426694 0.837727164470129
   0.388879161623017 0.463948895169432 0.576626445814098
