Generated by rsspolymlp
1.0
   3.654432449396580 0.000000000000000 0.000000000000000
   -0.040619800670794 4.972561438636244 0.000000000000000
   1.408301041476793 0.468598548113951 10.316604068831396
Cu  
4  
Direct
   0.000000000000000 0.000000000000000 0.000000000000000
   0.883862548435374 0.271026605170854 0.736916656658608
   0.174173126114911 0.254949240712111 0.897216622123528
   0.714261695352643 0.561338366872304 0.998992586874347
