Generated by rsspolymlp
1.0
   5.265537917627023 0.000000000000000 0.000000000000000
   2.110452212487529 6.612560269628789 0.000000000000000
   2.049029550105905 2.863882092280369 8.006452710099472
Cu  
4  
Direct
   0.000000000000000 0.000000000000000 0.000000000000000
   0.276686838037136 0.342526800287667 0.914876354492204
   0.079835894350631 0.368332994404048 0.182572318093499
   0.705954818467898 0.104916837112083 0.842970690429038
