Generated by rsspolymlp
1.0
   3.519022056206290 0.000000000000000 0.000000000000000
   -1.106294284003953 4.449243434634651 0.000000000000000
   1.361489839458647 1.697257463532020 8.384821437951729
Al  
3  
Direct
   0.000000000000000 0.000000000000000 0.000000000000000
   0.840040630602242 0.489250875351222 0.293366386204554
   0.604597145324666 0.298978897921295 0.457023659642118
