Generated by rsspolymlp
1.0
   2.584019632354077 0.000000000000000 0.000000000000000
   -0.461644089534890 8.221865670357213 0.000000000000000
   0.994032722625372 1.921502850767907 8.327156748160228
Al  
3  
Direct
   0.000000000000000 0.000000000000000 0.000000000000000
   0.227738536293984 0.898054970699687 0.972735418518589
   0.763700599159407 0.883666005244626 0.941466075280019
