Generated by rsspolymlp
1.0
   2.901748156945677 0.000000000000000 0.000000000000000
   -0.279025188864969 5.886920926529465 0.000000000000000
   1.415480138382495 2.159901063413365 10.395689935090497
Al  
3  
Direct
   0.000000000000000 0.000000000000000 0.000000000000000
   0.856312375975801 0.832223594829310 0.577109695123389
   0.273308078458801 0.394642136080596 0.931900564049244
