Generated by rss_polymlp
1.0
   2.797263600448809 0.000000000000000 0.000000000000000
   -1.398631800224404 2.422501339070192 0.000000000000000
   0.000000000000000 0.000000000000000 25.165712042960205
 Al  Z  
 6  0  
Direct
   0.333333333333333 0.666666666666667 0.285403346516416
   0.333333333333333 0.666666666666667 0.047929986816918
   0.000000000000000 0.000000000000000 0.618736679849749
   0.000000000000000 0.000000000000000 0.381263320150251
   0.666666666666667 0.333333333333333 0.952070013183082
   0.666666666666667 0.333333333333333 0.714596653483584
