Generated by rss_polymlp
1.0
   2.749465169204806 0.000000000000000 0.000000000000000
   1.374732523313964 2.381106845411916 0.000000000000000
   0.732307415008157 -0.295156862982919 10.348364882713561
 Al  Z  
 2  0  
Direct
   0.127817700074982 0.181333959094019 0.618324918104041
   0.872182299925018 0.818666040905981 0.381675081895959
