Generated by rss_polymlp
1.0
   10.636430746901029 0.000000000000000 0.000000000000000
   0.000000000000000 2.838523952043754 0.000000000000000
   -0.615700357809866 0.000000000000000 6.756909939523392
 Al  Z  
 12  0  
Direct
   0.371373478273683 0.000000000000000 0.021649591433380
   0.128626521726317 0.500000000000000 0.978350408566620
   0.047494098460813 0.000000000000000 0.312172778298325
   0.214512887749234 0.000000000000000 0.661300728184959
   0.285487112250766 0.500000000000000 0.338699271815041
   0.452505901539187 0.500000000000000 0.687827221701675
   0.871373478273683 0.500000000000000 0.021649591433380
   0.628626521726317 0.000000000000000 0.978350408566620
   0.547494098460813 0.500000000000000 0.312172778298325
   0.714512887749234 0.500000000000000 0.661300728184959
   0.785487112250766 0.000000000000000 0.338699271815041
   0.952505901539187 0.000000000000000 0.687827221701675
