Generated by rss_polymlp
1.0
   2.833006756693500 0.000000000000000 0.000000000000000
   -1.416502763588083 4.706594678481396 0.000000000000000
   -0.811174710447804 -0.766804407879287 13.896792787913684
 Al  Z  
 6  0  
Direct
   0.122867892129175 0.105542068977454 0.035817441748644
   0.300524441329927 0.611039980928263 0.773559272466904
   0.436269938432474 0.679049256400784 0.128886545085176
   0.737139679694805 0.236765122702229 0.205762122993731
   0.055397771465306 0.081455817793940 0.842240585073678
   0.821314264879885 0.550579441355679 0.951745736813952
