Generated by rsspolymlp
1.0
   4.386661856495214 0.000000000000000 0.000000000000000
   0.000000000000000 2.532640776533329 0.000000000000000
   -0.000101815238500 0.000000000000000 10.615271504805392
 Cu  
 6  
Direct
   0.061062955469796 0.000000000000000 0.108109063163634
   0.061071605324676 0.000000000000000 0.502401864596664
   0.394400655728180 0.000000000000000 0.305255462596662
   0.561062955469796 0.500000000000000 0.108109063163634
   0.561071605324676 0.500000000000000 0.502401864596664
   0.894400655728180 0.500000000000000 0.305255462596662
