Generated by rsspolymlp
1.0
   2.567714742346155 0.000000000000000 0.000000000000000
   -1.283857371173078 2.223706196543585 0.000000000000000
   0.000000000000000 0.000000000000000 18.918075514713898
 Cu  
 9  
Direct
   0.666666666666667 0.333333333333333 0.055640028487372
   0.333333333333333 0.666666666666667 0.166666666666667
   0.000000000000000 0.000000000000000 0.277693304845961
   0.333333333333333 0.666666666666667 0.388973361820705
   -0.000000000000000 -0.000000000000000 0.500000000000000
   0.666666666666667 0.333333333333333 0.611026638179295
   0.000000000000000 0.000000000000000 0.722306695154039
   0.666666666666667 0.333333333333333 0.833333333333333
   0.333333333333333 0.666666666666667 0.944359971512628
