Generated by rsspolymlp
1.0
   2.567714628666651 0.000000000000000 0.000000000000000
   -1.283857314333325 2.223706098094246 0.000000000000000
   0.000000000000000 0.000000000000000 18.918077827478736
 Cu  
 9  
Direct
   0.000000000000000 0.000000000000000 0.000000000000000
   0.666666666666667 0.333333333333333 0.111026638374203
   0.000000000000000 0.000000000000000 0.222306694959130
   0.666666666666667 0.333333333333333 0.333333333333333
   0.333333333333333 0.666666666666667 0.444359971707536
   0.666666666666667 0.333333333333333 0.555640028292464
   0.333333333333333 0.666666666666667 0.666666666666667
   0.000000000000000 0.000000000000000 0.777693305040870
   0.333333333333333 0.666666666666667 0.888973361625797
