Generated by rsspolymlp
1.0
   2.012782285640323 0.000000000000000 0.000000000000000
   0.951633813044473 7.396774536540478 0.000000000000000
   0.358892416465607 3.118125992611804 7.121764766285939
Cu  
2  
Direct
   0.000000000000000 0.000000000000000 0.000000000000000
   0.232985681583909 0.072975793266323 0.044640082907616
