Generated by rsspolymlp
1.0
   4.077639347694740 0.000000000000000 0.000000000000000
   -0.437624203940129 5.916973444618534 0.000000000000000
   0.082624667667917 0.154503607830773 6.047758629108106
Cu  
2  
Direct
   0.000000000000000 0.000000000000000 0.000000000000000
   0.263009734454777 0.811586178966814 0.325195277606458
