Generated by rsspolymlp
1.0
   2.380261705814159 0.000000000000000 0.000000000000000
   0.322624930659786 6.414355942647741 0.000000000000000
   0.930537139083471 2.071886164907119 7.767066388586764
Cu  
2  
Direct
   0.000000000000000 0.000000000000000 0.000000000000000
   0.093242062718744 0.786068242806712 0.871528106735518
