Generated by rsspolymlp
1.0
   1.106833036308941 0.000000000000000 0.000000000000000
   0.026536735721061 1.471099416449796 0.000000000000000
   0.164316038517736 0.086040457615638 7.579391941143279
Cu  
2  
Direct
   0.000000000000000 0.000000000000000 0.000000000000000
   0.525664041593456 0.173364707041333 0.175499300540963
