Generated by rsspolymlp
1.0
   4.562389297219750 0.000000000000000 0.000000000000000
   -1.240851250686485 5.445383123996624 0.000000000000000
   1.259816999880369 0.718521157043738 5.950006236894703
Cu  
2  
Direct
   0.000000000000000 0.000000000000000 0.000000000000000
   0.760299344746833 0.843697188796219 0.292914263772725
