Generated by rss_polymlp
1.0
   2.787998688088858 0.000000000000000 0.000000000000000
   1.393998946146042 6.208834671557248 0.000000000000000
   1.214153199418107 0.749286220376070 13.515910565842216
 Al  Cu  
 7  1  
Direct
   0.284513255202950 0.897269016293131 0.998738437506409
   0.620403830181643 0.273765377653177 0.943310876385463
   0.588670365013353 0.156062302812538 0.151315319134375
   0.907030021809552 0.395423499849338 0.293589378433975
   0.568163444706494 0.015797257568967 0.359444818734640
   0.939079325854978 0.521952307891720 0.074726587734979
   0.253511128521355 0.782829915469779 0.201317186208209
   0.230658616252301 0.673934146359561 0.378816049518076
