Generated by rss_polymlp
1.0
   2.643682463659522 0.000000000000000 0.000000000000000
   -0.000006052981518 10.344402379658849 0.000000000000000
   -0.035771661722926 -1.219183349078201 13.283454253568930
 Al  Cu  
 7  1  
Direct
   0.695382545174249 0.018449711717562 0.944860596964082
   0.192774845050354 0.994401740045006 0.751932726058671
   0.693703713244160 0.224737181424433 0.820734287905913
   0.693450307403312 0.774513853186674 0.801983311531446
   0.196191679092381 0.258585051316248 0.004655231021317
   0.698278034765044 0.873781038748330 0.158901630035077
   0.195887318593886 0.789260507769724 0.982180202865801
   0.197573891437232 0.063934479085746 0.106843340734062
