Generated by rss_polymlp
1.0
   9.796287126895320 0.000000000000000 0.000000000000000
   0.000000000000000 5.657697562865778 0.000000000000000
   -1.635604141533750 0.000000000000000 4.586612245812283
 Al  Cu  
 14  2  
Direct
   0.753115856744199 0.000000000000000 0.010278497250686
   0.500000000000000 0.254120436235843 0.000000000000000
   0.500000000000000 0.000000000000000 0.500000000000000
   0.500000000000000 0.745879563764157 0.000000000000000
   0.750000000000000 0.250000000000000 0.500000000000000
   0.246884143255801 0.000000000000000 0.989721502749314
   0.750000000000000 0.750000000000000 0.500000000000000
   0.253115856744199 0.500000000000000 0.010278497250686
   0.000000000000000 0.754120436235843 0.000000000000000
   0.000000000000000 0.500000000000000 0.500000000000000
   0.000000000000000 0.245879563764157 0.000000000000000
   0.250000000000000 0.750000000000000 0.500000000000000
   0.746884143255801 0.500000000000000 0.989721502749314
   0.250000000000000 0.250000000000000 0.500000000000000
   0.000000000000000 0.000000000000000 0.500000000000000
   0.500000000000000 0.500000000000000 0.500000000000000
