Generated by rss_polymlp
1.0
   2.698220162090826 0.000000000000000 0.000000000000000
   -1.349107941061445 8.735735299172772 0.000000000000000
   -0.052614226075636 -1.990024898352029 12.857752215354635
 Al  Cu  
 7  1  
Direct
   0.637880633235451 0.054834212864797 0.980031213008676
   0.251263446793830 0.284705146705195 0.900400780251406
   0.414927304317511 0.619663712108508 0.704745506615128
   0.174408529609818 0.142983119633752 0.592989097237158
   0.784773111799538 0.358335796510027 0.730873804236173
   0.025135567542070 0.843568902025330 0.615317200821937
   0.027741798623364 0.839940834777548 0.841969343327536
   0.633782964495499 0.055293287167757 0.758122620370226
