Generated by rss_polymlp
1.0
   13.528009312428468 0.000000000000000 0.000000000000000
   0.000000000000000 3.904630349803383 0.000000000000000
   -6.710936720127664 0.000000000000000 12.786603751313079
 Ca  
 16  
Direct
   0.107652876554134 0.500000000000000 0.995719462008245
   0.358158502744975 0.000000000000000 0.994504558482811
   0.318891760524609 0.000000000000000 0.244950952384875
   0.900688190748049 0.000000000000000 0.744350568347636
   0.150508793297051 0.500000000000000 0.744637788073607
   0.608599755633308 0.500000000000000 0.994185716148812
   0.858542370255344 0.000000000000000 0.994414082144154
   0.609891293135550 0.000000000000000 0.494574065976129
   0.359853901775833 0.500000000000000 0.494768875543990
   0.859690764626319 0.500000000000000 0.493582140187103
   0.650638706074861 0.500000000000000 0.744553265952293
   0.569174158239490 0.500000000000000 0.244398650791923
   0.400509926549189 0.000000000000000 0.744548617279730
   0.109887946052878 0.000000000000000 0.494482722534063
   0.819768920818045 0.000000000000000 0.242849519427240
   0.068926737841283 0.500000000000000 0.244463749514393
