Generated by rss_polymlp
1.0
   6.899711152613167 0.000000000000000 0.000000000000000
   3.443692141892744 6.166099326616468 0.000000000000000
   0.257806452507468 2.039100101206899 16.180733724335866
 Ca  
 16  
Direct
   0.490922488997715 0.690650665718206 0.903868121570089
   0.461955678814542 0.073027313512488 0.716195491597262
   0.750831147668727 0.998319996165477 0.500084983938074
   0.538044321185458 0.926972686487512 0.283804508402738
   0.858483153436923 0.631854399459879 0.100118047694339
   0.743370440151456 0.513806553235555 0.458139520741979
   0.185305127021509 0.961665542230999 0.095518179497729
   0.778435718544981 0.438242257176012 0.686915857861156
   0.249168852331273 0.001680003834523 0.499915016061926
   0.256629559848544 0.486193446764445 0.541860479258021
   0.141516846563077 0.368145600540121 0.899881952305661
   0.814694872978491 0.038334457769001 0.904481820502271
   0.509077511002285 0.309349334281794 0.096131878429911
   0.221564281455019 0.561757742823988 0.313084142138844
   0.893843970217126 0.215735830791369 0.283805497832122
   0.106156029782874 0.784264169208631 0.716194502167878
