Generated by rss_polymlp
1.0
   6.954528347541194 0.000000000000000 0.000000000000000
   -1.751962317535210 9.832903967000794 0.000000000000000
   -1.891616662690256 -2.470996380179716 10.123729069358708
 Ca  
 16  
Direct
   0.250291506142357 0.502253725324454 0.498128714323457
   0.035175960495439 0.807472855745153 0.389207271899169
   0.964824039504561 0.192527144254847 0.610792728100831
   0.812874584901009 0.105458935620005 0.909333491841684
   0.749708493857643 0.497746274675546 0.501871285676543
   0.388072036745231 0.138526666794266 0.429952107363446
   0.198633946926166 0.911695822406639 0.753701128934311
   0.652851052834691 0.725514608013878 0.896352963154847
   0.104380493430181 0.532862560681312 0.855689201815607
   0.801366053073834 0.088304177593361 0.246298871065689
   0.187125415098991 0.894541064379995 0.090666508158316
   0.347148947165309 0.274485391986122 0.103647036845153
   0.520162784522919 0.332693154378183 0.779283410524002
   0.479837215477081 0.667306845621817 0.220716589475998
   0.611927963254769 0.861473333205734 0.570047892636554
   0.895619506569819 0.467137439318688 0.144310798184393
