Generated by rss_polymlp
1.0
   11.436638242738919 0.000000000000000 0.000000000000000
   0.000000000000000 12.858228691342651 0.000000000000000
   0.000000000000000 0.000000000000000 9.343352060643793
 Ca  
 32  
Direct
   0.250000000000000 0.949191513610556 0.750000000000000
   0.750000000000000 0.949191513610556 0.750000000000000
   0.500000000000000 0.891456356420479 0.376884730995359
   0.500000000000000 0.250000000000000 0.272763245696737
   0.500000000000000 0.391456356420479 0.623115269004641
   0.690927736097066 0.250000000000000 0.934860759188862
   0.500000000000000 0.000000000000000 0.000000000000000
   0.309072263902934 0.250000000000000 0.934860759188862
   0.500000000000000 0.750000000000000 0.727236754303263
   0.000000000000000 0.000000000000000 0.500000000000000
   0.309072263902934 0.750000000000000 0.065139240811138
   0.690927736097066 0.750000000000000 0.065139240811138
   0.250000000000000 0.050808486389444 0.250000000000000
   0.750000000000000 0.050808486389444 0.250000000000000
   0.500000000000000 0.608543643579521 0.376884730995359
   0.500000000000000 0.108543643579521 0.623115269004641
   0.750000000000000 0.449191513610556 0.250000000000000
   0.250000000000000 0.449191513610556 0.250000000000000
   0.000000000000000 0.391456356420479 0.876884730995359
   0.000000000000000 0.750000000000000 0.772763245696737
   0.000000000000000 0.891456356420479 0.123115269004641
   0.190927736097066 0.750000000000000 0.434860759188862
   0.000000000000000 0.500000000000000 0.500000000000000
   0.809072263902934 0.750000000000000 0.434860759188862
   0.000000000000000 0.250000000000000 0.227236754303263
   0.500000000000000 0.500000000000000 0.000000000000000
   0.809072263902934 0.250000000000000 0.565139240811138
   0.190927736097066 0.250000000000000 0.565139240811138
   0.750000000000000 0.550808486389444 0.750000000000000
   0.250000000000000 0.550808486389444 0.750000000000000
   0.000000000000000 0.108543643579521 0.876884730995359
   0.000000000000000 0.608543643579521 0.123115269004641
