Generated by rss_polymlp
1.0
   7.007651773905613 0.000000000000000 0.000000000000000
   -0.803425551934969 13.317857291737196 0.000000000000000
   -3.324975735352806 -0.667280055954283 15.078145103432899
 Ca  
 16  
Direct
   0.129293026994477 0.915345862257874 0.060403836538647
   0.281455518196443 0.720314166018117 0.911752935178352
   0.116577193103245 0.105613303869990 0.244022500267891
   0.574873916889243 0.107382621135619 0.143373684061586
   0.025027308224357 0.174707265908329 0.008590415882961
   0.585051070354641 0.547838392791776 0.049641449838787
   0.135398686625830 0.644879781666283 0.135585979267171
   0.656227735334020 0.822336380428359 0.129649678009207
   0.023028360487822 0.456187984758177 0.944978646768780
   0.554409509955018 0.983260433954863 0.928782584852916
   0.876530917888473 0.357511627096740 0.173231446274612
   0.458727838258444 0.497483346944163 0.800465271229746
   0.364584922989728 0.357144359729362 0.172876321392370
   0.784978830395526 0.724790412977709 0.908902362312439
   0.928362677868149 0.574235931180221 0.718997393649407
   0.511354961454015 0.281545713655260 0.955289227445689
