Generated by rss_polymlp
1.0
   3.860849856831595 0.000000000000000 0.000000000000000
   0.000062440691914 13.441661171054093 0.000000000000000
   0.000044077516900 5.128364842481345 13.889120424207157
 Ca  
 16  
Direct
   0.750000263191858 0.872780757649385 0.501992375145417
   0.250007091811656 0.779497572168184 0.957354475780169
   0.750001797937568 0.909605777404389 0.113651562624901
   0.249999736808142 0.127219242350615 0.498007624854583
   0.250002565583824 0.737379216015171 0.344459510184230
   0.749997434416176 0.262620783984829 0.655540489815770
   0.249998202062432 0.090394222595611 0.886348437375099
   0.749992908188344 0.220502427831816 0.042645524219831
   0.749999473326634 0.297479780511782 0.267699731765275
   0.250000559561121 0.432918606238116 0.422127862727139
   0.249993084132294 0.398344111532147 0.811678713758256
   0.750001733911049 0.955981989288779 0.729399152121722
   0.250000526673366 0.702520219488218 0.732300268234725
   0.750006915867706 0.601655888467853 0.188321286241744
   0.249998266088951 0.044018010711221 0.270600847878278
   0.749999440438879 0.567081393761884 0.577872137272861
