Generated by rss_polymlp
1.0
   3.908093780005342 0.000000000000000 0.000000000000000
   -1.954046890002671 3.384508493856579 0.000000000000000
   0.000000000000000 0.000000000000000 12.790371111786587
 Ca  
 4  
Direct
   0.000000000000000 0.000000000000000 0.000000000000000
   0.666666666666667 0.333333333333333 0.750000000000000
   0.333333333333333 0.666666666666667 0.250000000000000
   0.000000000000000 0.000000000000000 0.500000000000000
