Generated by rss_polymlp
1.0
   7.184168637300208 0.000000000000000 0.000000000000000
   -2.201567541578289 10.131721086381647 0.000000000000000
   -2.586610912005550 -0.790855825006850 14.795953008575390
 Ca  
 16  
Direct
   0.870721502581308 0.664866125242925 0.869377951367821
   0.436808196804761 0.824898041396763 0.000000000876503
   0.028970262983129 0.314741836992327 0.869377952202666
   0.971029737016871 0.685258163007673 0.130622047797334
   0.336989738855480 0.018591082366656 0.212549357638281
   0.682106045502996 0.360999957755084 0.226923085842031
   0.663010261144520 0.981408917633344 0.787450642361719
   0.500000000000000 0.500000000000000 0.000000000000000
   0.000000000000000 0.000000000000000 0.000000000000000
   0.492154386311757 0.674426096197291 0.226923089916414
   0.317893954497004 0.639000042244916 0.773076914157969
   0.173767291672527 0.985408976288062 0.787450643779063
   0.507845613688243 0.325573903802709 0.773076910083586
   0.563191803195239 0.175101958603237 0.999999999123497
   0.826232708327473 0.014591023711938 0.212549356220937
   0.129278497418692 0.335133874757075 0.130622048632179
