Generated by rss_polymlp
1.0
   3.904569452586969 0.000000000000000 0.000000000000000
   -1.952284726293484 3.381456336781014 0.000000000000000
   0.000000000000000 0.000000000000000 6.409644736095860
 Ca  
 2  
Direct
   0.333333333333333 0.666666666666667 0.750000000000000
   0.666666666666667 0.333333333333333 0.250000000000000
