Generated by rss_polymlp
1.0
   7.070419234109046 0.000000000000000 0.000000000000000
   -3.138057612750881 9.481842294804004 0.000000000000000
   -0.569735784317004 -2.387461118395755 10.361955636197232
 Ca  
 16  
Direct
   0.041084082294747 0.323279080343585 0.127720216936003
   0.230213209829386 0.075211918003610 0.342778075845163
   0.050927311069155 0.586031287463927 0.881076697098137
   0.044912815546065 0.202902263149302 0.714147838252548
   0.826415669246725 0.730149963359142 0.162256755827159
   0.164101528927045 0.482889071182541 0.511724440524203
   0.857486760384898 0.773214041330836 0.543013175249248
   0.525742928411611 0.323895901913232 0.949594955193757
   0.334701766083232 0.715232296763693 0.277837001836754
   0.609759633437927 0.347124917324691 0.619320289909017
   0.556246214683091 0.658930455087459 0.822857266010635
   0.537467894536743 0.984956097488118 0.054490730185831
   0.036861062802800 0.965710650879575 0.933753048981841
   0.750324830934242 0.084011199531716 0.386637053978436
   0.610970137036119 0.410649455613028 0.298773397968536
   0.436546154827085 0.950493986154637 0.670772078931702
