Generated by rss_polymlp
1.0
   3.834431994242536 0.000000000000000 0.000000000000000
   -1.917212872007002 15.663284946588522 0.000000000000000
   -1.494286998396739 -4.349655503618566 18.470610114725822
 Ca  
 16  
Direct
   0.853266650243263 0.089641731657305 0.840431356046581
   0.516120349773191 0.465104132857478 0.776593770250721
   0.912885987318293 0.403299533575017 0.590984754040097
   0.279754740485487 0.183478082918159 0.531399287973038
   0.321660557695698 0.356596240377356 0.416816179793435
   0.702475562844078 0.858500906319023 0.750053184053648
   0.544911897363554 0.623323855196820 0.647473856251308
   0.880029490957026 0.240678738320006 0.715320982504719
   0.486111195416233 0.309713732032112 0.898959445753441
   0.119754173423437 0.531065496994511 0.957894420474403
   0.148380088719953 0.686476806526935 0.831952681715223
   0.593726139639261 0.801822273389432 0.543714884471132
   0.307179092281584 0.925460266540551 0.932817999932184
   0.244349589249405 0.016512780519780 0.654770171571811
   0.951787522332623 0.575801909007379 0.469482776937404
   0.747518345831267 0.749682270989331 0.005253219247967
