Generated by rss_polymlp
1.0
   3.904569678375844 0.000000000000000 0.000000000000000
   -1.952284839187922 3.381456532319916 0.000000000000000
   0.000000000000000 0.000000000000000 6.409645075875869
 Ca  
 2  
Direct
   0.333333333333333 0.666666666666667 0.750000000000000
   0.666666666666667 0.333333333333333 0.250000000000000
