Generated by rss_polymlp
1.0
   3.908093836880100 0.000000000000000 0.000000000000000
   -1.954046918440050 3.384508543111565 0.000000000000000
   0.000000000000000 0.000000000000000 12.790371080439302
 Ca  
 4  
Direct
   0.000000000000000 0.000000000000000 0.500000000000000
   0.666666666666667 0.333333333333333 0.750000000000000
   0.000000000000000 0.000000000000000 0.000000000000000
   0.333333333333333 0.666666666666667 0.250000000000000
