Generated by rss_polymlp
1.0
   7.225245117297052 0.000000000000000 0.000000000000000
   -2.483463514204304 9.348377033542874 0.000000000000000
   -2.295722624863178 -1.901020742779365 10.251959097296423
 Ca  
 16  
Direct
   0.114386987284150 0.645113370907747 0.427008764162587
   0.969017920208989 0.779674781773168 0.795185054602614
   0.000000000000000 0.000000000000000 0.500000000000000
   0.740946642388825 0.391942178251225 0.898755855201995
   0.500000000000000 0.000000000000000 0.000000000000000
   0.593401119441983 0.370428839499186 0.212874848272025
   0.554433915470997 0.004010873775156 0.675492085135547
   0.259053357611175 0.608057821748775 0.101244144798005
   0.406598880558017 0.629571160500814 0.787125151727975
   0.885613012715850 0.354886629092253 0.572991235837413
   0.380415340172184 0.329418483518880 0.540541023633187
   0.619584659827816 0.670581516481120 0.459458976366813
   0.169344408998291 0.220908651928357 0.858241128106702
   0.030982079791011 0.220325218226832 0.204814945397386
   0.445566084529003 0.995989126224844 0.324507914864453
   0.830655591001709 0.779091348071643 0.141758871893298
