Generated by rss_polymlp
1.0
   11.871615380419467 0.000000000000000 0.000000000000000
   0.000000000000000 3.937920352760833 0.000000000000000
   -0.933601411209014 0.000000000000000 14.720511352317031
 Ca  
 16  
Direct
   0.757497550617054 0.750000000000000 0.757523512368242
   0.445558468393507 0.750000000000000 0.779100639925051
   0.350954161564648 0.250000000000000 0.990951197770494
   0.587759202203416 0.250000000000000 0.585236549407497
   0.649045838435352 0.750000000000000 0.009048802229506
   0.098349149216008 0.750000000000000 0.067515067342851
   0.242502449382946 0.250000000000000 0.242476487631758
   0.554441531606493 0.250000000000000 0.220899360074949
   0.067378181534751 0.750000000000000 0.401538976165338
   0.254315931228045 0.250000000000000 0.594468065125979
   0.901650850783992 0.250000000000000 0.932484932657149
   0.932621818465249 0.250000000000000 0.598461023834662
   0.412240797796584 0.750000000000000 0.414763450592503
   0.745684068771955 0.750000000000000 0.405531934874021
   0.120865224843610 0.750000000000000 0.800556081028259
   0.879134775156390 0.250000000000000 0.199443918971741
