Generated by rss_polymlp
1.0
   22.657790680356225 0.000000000000000 0.000000000000000
   0.000000000000000 5.491183513569336 0.000000000000000
   -11.328888408627474 0.000000000000000 11.328908520766932
 Ca  
 32  
Direct
   0.146707991747279 0.500000000000000 0.734233159253686
   0.179275352573689 0.000000000000000 0.382421492179844
   0.768328623972624 0.000000000000000 0.325556985751378
   0.030703692951662 0.500000000000000 0.149437248327217
   0.231671376027376 0.000000000000000 0.674443014248622
   0.853292008252721 0.500000000000000 0.265766840746314
   0.703146114232500 0.000000000000000 0.023870800403822
   0.969296307048338 0.500000000000000 0.850562751672783
   0.618733476999776 0.500000000000000 0.088029815275847
   0.381266523000224 0.500000000000000 0.911970184724153
   0.942771604628366 0.000000000000000 0.211100227932270
   0.296853885767500 0.000000000000000 0.976129199596178
   0.057228395371634 0.000000000000000 0.788899772067730
   0.087525016726810 0.500000000000000 0.440817299319532
   0.912474983273190 0.500000000000000 0.559182700680468
   0.820724647426311 0.000000000000000 0.617578507820156
   0.646707991747279 0.000000000000000 0.734233159253686
   0.679275352573689 0.500000000000000 0.382421492179844
   0.268328623972624 0.500000000000000 0.325556985751378
   0.530703692951662 0.000000000000000 0.149437248327217
   0.731671376027376 0.500000000000000 0.674443014248622
   0.353292008252721 0.000000000000000 0.265766840746314
   0.203146114232500 0.500000000000000 0.023870800403822
   0.469296307048338 0.000000000000000 0.850562751672783
   0.118733476999776 0.000000000000000 0.088029815275847
   0.881266523000224 0.000000000000000 0.911970184724153
   0.442771604628366 0.500000000000000 0.211100227932270
   0.796853885767500 0.500000000000000 0.976129199596178
   0.557228395371634 0.500000000000000 0.788899772067730
   0.587525016726810 0.000000000000000 0.440817299319532
   0.412474983273190 0.000000000000000 0.559182700680468
   0.320724647426311 0.500000000000000 0.617578507820156
