Generated by rss_polymlp
1.0
   3.908093952666550 0.000000000000000 0.000000000000000
   -1.954046976333275 3.384508643385572 0.000000000000000
   0.000000000000000 0.000000000000000 12.790371152783381
 Ca  
 4  
Direct
   0.000000000000000 0.000000000000000 0.000000000000000
   0.666666666666667 0.333333333333333 0.750000000000000
   0.000000000000000 0.000000000000000 0.500000000000000
   0.333333333333333 0.666666666666667 0.250000000000000
