Generated by rss_polymlp
1.0
   13.528008931964896 0.000000000000000 0.000000000000000
   0.000000000000000 3.904630360003495 0.000000000000000
   -6.710928828852877 0.000000000000000 12.786602971676121
 Ca  
 16  
Direct
   0.138241601824514 0.000000000000000 0.941618681719068
   0.848122574061032 0.000000000000000 0.689985477041031
   0.057322328216181 0.000000000000000 0.440117644059906
   0.599852012394423 0.000000000000000 0.189963641057118
   0.388836364756979 0.500000000000000 0.940069548601040
   0.598156618668909 0.500000000000000 0.689699328348995
   0.639118768732438 0.000000000000000 0.939517252204217
   0.348119231620012 0.000000000000000 0.689894138127277
   0.850357644125161 0.500000000000000 0.188748746662603
   0.098319755425080 0.500000000000000 0.690886067318723
   0.349410755684261 0.500000000000000 0.190282483304316
   0.307371809221162 0.500000000000000 0.439914939547366
   0.889083790723604 0.500000000000000 0.940004457548045
   0.557500584333924 0.000000000000000 0.439919578877356
   0.099468148870522 0.000000000000000 0.190054126669838
   0.807501718380613 0.500000000000000 0.439830412713437
