Generated by rss_polymlp
1.0
   11.876513786307708 0.000000000000000 0.000000000000000
   0.000000000000000 3.935396320882335 0.000000000000000
   -2.899098589346359 0.000000000000000 14.700241742915319
 Ca  
 16  
Direct
   0.521850448426128 0.750000000000000 0.716524022645926
   0.812561270995410 0.250000000000000 0.300056608114711
   0.934011629675947 0.750000000000000 0.095237075829857
   0.075004121434901 0.750000000000000 0.430743873490197
   0.187438729004590 0.750000000000000 0.699943391885289
   0.280253592691864 0.750000000000000 0.081663480551572
   0.395175929767286 0.250000000000000 0.898645529252834
   0.351717327902805 0.250000000000000 0.509041265588250
   0.924995878565099 0.250000000000000 0.569256126509803
   0.160551883423304 0.250000000000000 0.253452329664873
   0.648282672097195 0.750000000000000 0.490958734411750
   0.604824070232714 0.750000000000000 0.101354470747166
   0.478149551573872 0.250000000000000 0.283475977354074
   0.839448116576696 0.750000000000000 0.746547670335127
   0.719746407308136 0.250000000000000 0.918336519448428
   0.065988370324053 0.250000000000000 0.904762924170143
