Generated by rss_polymlp
1.0
   3.904569621054387 0.000000000000000 0.000000000000000
   -1.952284810527193 3.381456482678078 0.000000000000000
   0.000000000000000 0.000000000000000 6.409645097776037
 Ca  
 2  
Direct
   0.333333333333333 0.666666666666667 0.250000000000000
   0.666666666666667 0.333333333333333 0.750000000000000
