Generated by rss_polymlp
1.0
   6.761570047754516 0.000000000000000 0.000000000000000
   2.483876868853461 9.633503464102880 0.000000000000000
   2.601365393225420 1.316149901082487 10.547491694766437
 Ca  
 16  
Direct
   0.239914610193615 0.025795108002238 0.247584986126086
   0.148203313892276 0.677407664323665 0.188412903274448
   0.623403046378316 0.343084414908976 0.220516429270731
   0.557259406939555 0.675688669811900 0.385578571103620
   0.752469693440650 0.657462721170459 0.990730669021681
   0.760085389806385 0.974204891997762 0.752415013873914
   0.750963713006195 0.003302042982458 0.417680569341325
   0.376596953621684 0.656915585091024 0.779483570729269
   0.977442898066995 0.656382782029261 0.584663253636565
   0.256521392621043 0.990161837306937 0.918349726082883
   0.249036286993805 0.996697957017542 0.582319430658675
   0.851796686107724 0.322592335676335 0.811587096725552
   0.247530306559350 0.342537278829541 0.009269330978319
   0.743478607378957 0.009838162693063 0.081650273917117
   0.442740593060445 0.324311330188100 0.614421428896380
   0.022557101933005 0.343617217970739 0.415336746363435
