Generated by rss_polymlp
1.0
   3.904569598225339 0.000000000000000 0.000000000000000
   -1.952284799112669 3.381456462907543 0.000000000000000
   0.000000000000000 0.000000000000000 6.409644793097508
 Ca  
 2  
Direct
   0.333333333333333 0.666666666666667 0.250000000000000
   0.666666666666667 0.333333333333333 0.750000000000000
