Generated by rss_polymlp
1.0
   3.904569689309580 0.000000000000000 0.000000000000000
   -1.952284844654790 3.381456541788809 0.000000000000000
   0.000000000000000 0.000000000000000 6.409645172422364
 Ca  
 2  
Direct
   0.666666666666667 0.333333333333333 0.250000000000000
   0.333333333333333 0.666666666666667 0.750000000000000
