Generated by rss_polymlp
1.0
   29.166522242316482 0.000000000000000 0.000000000000000
   0.000000000000000 5.530533111634653 0.000000000000000
   -0.705172614678752 0.000000000000000 8.722571150429246
 Ca  
 32  
Direct
   0.676804128120983 0.500000000000000 0.730195354877284
   0.703485040350030 0.000000000000000 0.438479670089740
   0.969433755500245 0.500000000000000 0.806587272718026
   0.557040525931257 0.500000000000000 0.895167874932661
   0.796514959649970 0.500000000000000 0.561520329910260
   0.583974480661108 0.000000000000000 0.608310900049400
   0.530566244499755 0.000000000000000 0.193412727281974
   0.614366880397134 0.500000000000000 0.318561194380488
   0.942959474068743 0.000000000000000 0.104832125067339
   0.734375505354022 0.500000000000000 0.147198205040178
   0.854619747020800 0.500000000000000 0.979624109849531
   0.916025519338892 0.500000000000000 0.391689099950600
   0.823195871879017 0.000000000000000 0.269804645122716
   0.765624494645978 0.000000000000000 0.852801794959822
   0.645380252979200 0.000000000000000 0.020375890150469
   0.885633119602866 0.000000000000000 0.681438805619512
   0.176804128120983 0.000000000000000 0.730195354877284
   0.203485040350030 0.500000000000000 0.438479670089740
   0.469433755500245 0.000000000000000 0.806587272718026
   0.057040525931257 0.000000000000000 0.895167874932661
   0.296514959649970 0.000000000000000 0.561520329910260
   0.083974480661108 0.500000000000000 0.608310900049400
   0.030566244499755 0.500000000000000 0.193412727281974
   0.114366880397134 0.000000000000000 0.318561194380488
   0.442959474068743 0.500000000000000 0.104832125067339
   0.234375505354022 0.000000000000000 0.147198205040178
   0.354619747020800 0.000000000000000 0.979624109849531
   0.416025519338892 0.000000000000000 0.391689099950600
   0.323195871879017 0.500000000000000 0.269804645122716
   0.265624494645978 0.500000000000000 0.852801794959822
   0.145380252979200 0.500000000000000 0.020375890150469
   0.385633119602866 0.500000000000000 0.681438805619512
