Generated by rss_polymlp
1.0
   6.954529201816288 0.000000000000000 0.000000000000000
   -1.751959248809544 9.832900519080228 0.000000000000000
   -1.891617705151761 -2.471001435976617 10.123731793655585
 Ca  
 16  
Direct
   0.847149141492110 0.774485439565044 0.603646952171679
   0.604380459268794 0.032862321306839 0.355689217477454
   0.888072288985305 0.638526628167497 0.929951873384736
   0.698633776807646 0.411695597173219 0.253701278525172
   0.464824157564083 0.692526927444139 0.110792506224166
   0.979837260251143 0.167307094904625 0.720716803501981
   0.111927711014695 0.361473371832503 0.070048126615264
   0.687125038267609 0.394540935421122 0.590666542475145
   0.750291434841870 0.002253642495323 0.998128626130370
   0.301366223192354 0.588304402826781 0.746298721474828
   0.535175842435917 0.307473072555861 0.889207493775834
   0.395619540731206 0.967137678693161 0.644310782522546
   0.020162739748857 0.832692905095375 0.279283196498019
   0.152850858507890 0.225514560434956 0.396353047828321
   0.312874961732391 0.605459064578878 0.409333457524855
   0.249708565158130 0.997746357504677 0.001871373869630
