Generated by rss_polymlp
1.0
   6.797276068025296 0.000000000000000 0.000000000000000
   -2.864036423764519 8.725719005289147 0.000000000000000
   -1.820338354230413 -4.259865597324432 11.672231412453929
 Ca  
 16  
Direct
   0.198420099501706 0.214134679240174 0.081850811349977
   0.988523734655905 0.442026735632201 0.627393405905678
   0.899975363731397 0.147342435834212 0.791651098252255
   0.100024636268603 0.852657564165788 0.208348901747745
   0.000000000000000 0.000000000000000 0.500000000000000
   0.623897074850085 0.697109911736917 0.606281445604601
   0.742707835863016 0.398795838735029 0.040744053769189
   0.376102925149915 0.302890088263083 0.393718554395399
   0.500000000000000 0.000000000000000 0.500000000000000
   0.694408121865935 0.077022413716045 0.209275048838650
   0.011476265344095 0.557973264367799 0.372606594094322
   0.257292164136984 0.601204161264971 0.959255946230811
   0.471565203175806 0.344744366399239 0.736475502033489
   0.528434796824194 0.655255633600761 0.263524497966511
   0.801579900498294 0.785865320759826 0.918149188650023
   0.305591878134065 0.922977586283955 0.790724951161350
