Generated by rss_polymlp
1.0
   7.225245836665092 0.000000000000000 0.000000000000000
   -2.483466061104153 9.348377288359606 0.000000000000000
   -2.295724826634655 -1.901019544885070 10.251958428355655
 Ca  
 16  
Direct
   0.759053346967159 0.608057865907488 0.601244158589738
   0.054433966534988 0.004010825780431 0.175492087324207
   0.906598929511470 0.629571136203847 0.287125185670155
   0.500000000000000 0.000000000000000 0.000000000000000
   0.614386961952666 0.645113413931152 0.927008785844843
   0.530982041805790 0.220325317625884 0.704815016321321
   0.093401070488530 0.370428863796153 0.712874814329845
   0.469017958194210 0.779674682374116 0.295184983678679
   0.945566033465012 0.995989174219569 0.824507912675793
   0.880415401284806 0.329418496086590 0.040541082407331
   0.000000000000000 0.000000000000000 0.500000000000000
   0.669344348725702 0.220908611211098 0.358241176164271
   0.385613038047334 0.354886586068848 0.072991214155157
   0.119584598715194 0.670581503913410 0.959458917592669
   0.330655651274298 0.779091388788902 0.641758823835729
   0.240946653032841 0.391942134092512 0.398755841410262
