Generated by rss_polymlp
1.0
   3.944168940582488 0.000000000000000 0.000000000000000
   1.860811230978213 12.823741132436542 0.000000000000000
   0.276277984953869 0.619774064747536 13.516441196089907
 Ca  
 16  
Direct
   0.199887707268127 0.580608134792907 0.762168291286160
   0.336229519012804 0.256892926393312 0.739139698962644
   0.663770480987196 0.743107073606688 0.260860301037356
   0.800112292731873 0.419391865207093 0.237831708713840
   0.387601212234874 0.228148929723080 0.439996395053190
   0.196892143496443 0.621450077785269 0.046135254491027
   0.987265681974859 0.023685695854886 0.638192620817913
   0.846276126854093 0.089154031571070 0.908951232153615
   0.415814065879744 0.170600980908465 0.153180700256206
   0.778409207945986 0.425587225157766 0.582997148870929
   0.584185934120256 0.829399019091535 0.846819299743794
   0.012734318025141 0.976314304145114 0.361807379182087
   0.612398787765126 0.771851070276920 0.560003604946810
   0.153723873145907 0.910845968428930 0.091048767846385
   0.803107856503557 0.378549922214731 0.953864745508973
   0.221590792054014 0.574412774842234 0.417002851129071
