Generated by rss_polymlp
1.0
   9.464291356484960 0.000000000000000 0.000000000000000
   0.000000000000000 3.837746428985659 0.000000000000000
   -3.402767034552713 0.000000000000000 18.813970105444561
 Ca  
 16  
Direct
   0.546806478953284 0.750000000000000 0.841970948077130
   0.874988538692728 0.250000000000000 0.217554678214762
   0.605608304589858 0.250000000000000 0.351186751143879
   0.317539854385966 0.250000000000000 0.959538004839141
   0.962819628104232 0.750000000000000 0.407494125402499
   0.125011461307272 0.750000000000000 0.782445321785238
   0.319949050089862 0.250000000000000 0.468791619606538
   0.905790983242110 0.250000000000000 0.914053246270601
   0.394391695410142 0.750000000000000 0.648813248856121
   0.037180371895768 0.250000000000000 0.592505874597501
   0.453193521046716 0.250000000000000 0.158029051922870
   0.242175549592544 0.750000000000000 0.286506651938598
   0.680050949910138 0.750000000000000 0.531208380393462
   0.757824450407456 0.250000000000000 0.713493348061402
   0.682460145614034 0.750000000000000 0.040461995160859
   0.094209016757890 0.750000000000000 0.085946753729399
