Generated by rss_polymlp
1.0
   3.904569353121409 0.000000000000000 0.000000000000000
   -1.952284676560704 3.381456250641313 0.000000000000000
   0.000000000000000 0.000000000000000 6.409644903809900
 Ca  
 2  
Direct
   0.666666666666667 0.333333333333333 0.250000000000000
   0.333333333333333 0.666666666666667 0.750000000000000
