Generated by rss_polymlp
1.0
   7.002122030064943 0.000000000000000 0.000000000000000
   -1.672923786162656 9.424347564215761 0.000000000000000
   -1.862966467515067 -2.045475911290633 10.492507790989354
 Ca  
 16  
Direct
   0.589818795581368 0.655355854481552 0.802145999895243
   0.000000000000000 0.000000000000000 0.000000000000000
   0.725339574182058 0.729279356206161 0.161239157424131
   0.274660425817942 0.270720643793839 0.838760842575869
   0.949106976110664 0.461563774547648 0.656078336046929
   0.813095035857383 0.349227025593484 0.992812986810678
   0.610345499156526 0.692075584450419 0.471214236492653
   0.843372506926685 0.135235251994011 0.345378795624792
   0.294437844162746 0.933594963330351 0.315821068999358
   0.410181204418632 0.344644145518448 0.197854000104757
   0.186904964142617 0.650772974406516 0.007187013189322
   0.500000000000000 0.000000000000000 0.000000000000000
   0.389654500843474 0.307924415549581 0.528785763507347
   0.050893023889336 0.538436225452352 0.343921663953071
   0.705562155837254 0.066405036669649 0.684178931000642
   0.156627493073315 0.864764748005989 0.654621204375208
