Generated by rss_polymlp
1.0
   25.193868096425817 0.000000000000000 0.000000000000000
   0.000000000000000 3.842988253760697 0.000000000000000
   -4.007950213131346 0.000000000000000 17.336455694624476
 Ca  
 32  
Direct
   0.274952327939505 0.000000000000000 0.007042012992300
   0.259225378273874 0.500000000000000 0.809803115097557
   0.028404981548126 0.500000000000000 0.709125000749607
   0.138682770097690 0.000000000000000 0.861738104211424
   0.155078549341649 0.500000000000000 0.056461607635471
   0.149752270695363 0.000000000000000 0.651312880576211
   0.413561236558152 0.500000000000000 0.566848872912528
   0.291234169718228 0.500000000000000 0.202953636406453
   0.394843608472442 0.500000000000000 0.954608772653591
   0.032196712870522 0.000000000000000 0.105247580603999
   0.031017655172597 0.500000000000000 0.505128549833069
   0.015965253452308 0.000000000000000 0.311808501914489
   0.018219260164040 0.500000000000000 0.915513038303011
   0.385159026725988 0.000000000000000 0.755457972392602
   0.411624091191420 0.000000000000000 0.154124271373444
   0.397021907891746 0.000000000000000 0.364637540492231
   0.774952327939505 0.500000000000000 0.007042012992300
   0.759225378273874 0.000000000000000 0.809803115097557
   0.528404981548126 0.000000000000000 0.709125000749607
   0.638682770097690 0.500000000000000 0.861738104211424
   0.655078549341649 0.000000000000000 0.056461607635471
   0.649752270695363 0.500000000000000 0.651312880576211
   0.913561236558152 0.000000000000000 0.566848872912528
   0.791234169718228 0.000000000000000 0.202953636406453
   0.894843608472442 0.000000000000000 0.954608772653591
   0.532196712870522 0.500000000000000 0.105247580603999
   0.531017655172597 0.000000000000000 0.505128549833069
   0.515965253452308 0.500000000000000 0.311808501914489
   0.518219260164040 0.000000000000000 0.915513038303011
   0.885159026725988 0.500000000000000 0.755457972392602
   0.911624091191420 0.500000000000000 0.154124271373444
   0.897021907891746 0.500000000000000 0.364637540492231
