Generated by rss_polymlp
1.0
   3.904569635533602 0.000000000000000 0.000000000000000
   -1.952284817766801 3.381456495217446 0.000000000000000
   0.000000000000000 0.000000000000000 6.409645317109970
 Ca  
 2  
Direct
   0.666666666666667 0.333333333333333 0.750000000000000
   0.333333333333333 0.666666666666667 0.250000000000000
