Generated by rss_polymlp
1.0
   3.904569681958865 0.000000000000000 0.000000000000000
   -1.952284840979432 3.381456535422903 0.000000000000000
   0.000000000000000 0.000000000000000 6.409645066631582
 Ca  
 2  
Direct
   0.333333333333333 0.666666666666667 0.250000000000000
   0.666666666666667 0.333333333333333 0.750000000000000
