Generated by rss_polymlp
1.0
   6.341187060824635 0.000000000000000 0.000000000000000
   -0.211598726549853 18.603930117709002 0.000000000000000
   -0.740323950335163 -7.499637852317273 18.256352138194394
 Ca  
 16  
Direct
   0.854809546350579 0.772660504777511 0.000123432721662
   0.897156004730389 0.928736115403479 0.921333218348768
   0.368199329679730 0.797362932659199 0.893092185046671
   0.852354458001602 0.888387335083104 0.645065053637932
   0.831929389549983 0.849101218885314 0.203859399608817
   0.073888986422852 0.713278578273994 0.300884508628113
   0.331929891964656 0.896234211701175 0.311640835269940
   0.821944758145091 0.712744707846007 0.483685569890081
   0.324328897187949 0.843788490562627 0.500281058553824
   0.856351022622959 0.757846754502061 0.750266392186012
   0.825701750766213 0.889658838294904 0.424173790981535
   0.341492225271340 0.908097610703140 0.098798760512167
   0.319775167637027 0.726256414996228 0.121196327238753
   0.412429493132969 0.026417781087818 0.999998558690790
   0.377064109102429 0.919288592299369 0.786525710953166
   0.342433641403166 0.736953340570287 0.624328431823835
