Generated by rss_polymlp
1.0
   3.908093894946025 0.000000000000000 0.000000000000000
   -1.954046947473012 3.384508593398130 0.000000000000000
   0.000000000000000 0.000000000000000 12.790371047222099
 Ca  
 4  
Direct
   0.000000000000000 0.000000000000000 0.000000000000000
   0.333333333333333 0.666666666666667 0.750000000000000
   0.666666666666667 0.333333333333333 0.250000000000000
   0.000000000000000 0.000000000000000 0.500000000000000
