Generated by rss_polymlp
1.0
   6.895894951684202 0.000000000000000 0.000000000000000
   3.447942250750454 10.739942519008764 0.000000000000000
   1.939135998879265 2.018197748421780 16.442192498684587
 Ca  
 16  
Direct
   0.889223659573208 0.111715723579623 0.005846692970645
   0.575279582919038 0.624060264002036 0.211291874343169
   0.006907949637808 0.705700614432958 0.309269283095723
   0.663072843883924 0.957111758877663 0.189191091706809
   0.828957822112483 0.010155543103463 0.400743957082265
   0.707742850384793 0.463121951699733 0.026393531716667
   0.375833434133726 0.421896492603739 0.405304616000382
   0.316722868041238 0.229890295364944 0.053547788325354
   0.442997451573335 0.781630599945354 0.401535994738936
   0.282080723092108 0.141770307332903 0.333425020606226
   0.064505585032716 0.729345770229415 0.062399933490926
   0.867776306925560 0.421896193379086 0.405304592563625
   0.754176415636628 0.261105376628232 0.220468981658315
   0.166864487154754 0.957111832594540 0.189191127860664
   0.963230485392883 0.670233872711943 0.527656195944970
   0.171067509294778 0.440276613529180 0.197436693941357
