Generated by rss_polymlp
1.0
   5.526154382000276 0.000000000000000 0.000000000000000
   0.000000000000000 5.526154382000276 0.000000000000000
   0.000000000000000 0.000000000000000 5.526154382000276
 Ca  
 4  
Direct
   0.500000000000000 0.000000000000000 0.000000000000000
   0.500000000000000 0.500000000000000 0.500000000000000
   0.000000000000000 0.000000000000000 0.500000000000000
   0.000000000000000 0.500000000000000 0.000000000000000
