Generated by rss_polymlp
1.0
   3.904569412796520 0.000000000000000 0.000000000000000
   -1.952284706398260 3.381456302321475 0.000000000000000
   0.000000000000000 0.000000000000000 6.409645200356179
 Ca  
 2  
Direct
   0.333333333333333 0.666666666666667 0.750000000000000
   0.666666666666667 0.333333333333333 0.250000000000000
