Generated by rss_polymlp
1.0
   3.840963681746810 0.000000000000000 0.000000000000000
   -1.920475536751190 14.800916179354800 0.000000000000000
   -0.356050592408644 -4.455370097151572 19.009801328394026
 Ca  
 16  
Direct
   0.910740667447337 0.995633045163775 0.878944064803818
   0.040917263912245 0.234731761557511 0.993401774049370
   0.295357909345387 0.787418425627997 0.757277735990739
   0.652484019191042 0.434544965429379 0.119237476308507
   0.064227202865876 0.245269646886688 0.188088935908037
   0.716270534200990 0.612727740831264 0.846414531820899
   0.860954306120747 0.850339389364628 0.125490897764062
   0.495396732317631 0.178990790322725 0.803153393507729
   0.677603244955117 0.572100793067362 0.648315209345167
   0.235779372529558 0.616671209556846 0.035413195517553
   0.260598579459556 0.753031861700739 0.567724962360975
   0.878638154607203 0.968719122033328 0.677746231941307
   0.622937747837017 0.412301024275734 0.920353590755548
   0.328759085398109 0.817358974617305 0.956178688157816
   0.096793969667013 0.392774285798707 0.743818268677746
   0.455425719347018 0.050352040765964 0.065719612451692
