Generated by rss_polymlp
1.0
   18.356505038628757 0.000000000000000 0.000000000000000
   0.000000000000000 3.929866350139157 0.000000000000000
   -9.118193973012776 0.000000000000000 19.037624330458552
 Ca  
 32  
Direct
   0.408044238253331 0.000000000000000 0.408409089504195
   0.664318783719871 0.000000000000000 0.253651861485717
   0.016352095165388 0.000000000000000 0.413671404799564
   0.335681216280129 0.000000000000000 0.746348138514283
   0.857765314611702 0.500000000000000 0.248682357039087
   0.983647904834612 0.000000000000000 0.586328595200436
   0.173566796371635 0.500000000000000 0.580612367262585
   0.051445255868999 0.000000000000000 0.249212315679706
   0.551322206953994 0.000000000000000 0.905068689655297
   0.208480536947913 0.500000000000000 0.414050037453330
   0.364884518311973 0.000000000000000 0.575035666568357
   0.826433203628365 0.500000000000000 0.419387632737415
   0.771146117473041 0.000000000000000 0.077735292758248
   0.608313078537130 0.500000000000000 0.078790872655368
   0.635115481688027 0.000000000000000 0.424964333431643
   0.529784545584894 0.500000000000000 0.733736584778193
   0.391686921462870 0.500000000000000 0.921209127344632
   0.756298953939916 0.500000000000000 0.748035389564464
   0.063764758476015 0.500000000000000 0.919296002414291
   0.243701046060084 0.500000000000000 0.251964610435536
   0.948554744131001 0.000000000000000 0.750787684320294
   0.936235241523985 0.500000000000000 0.080703997585709
   0.105908893370515 0.000000000000000 0.085509391026175
   0.142234685388298 0.500000000000000 0.751317642960913
   0.470215454415106 0.500000000000000 0.266263415221807
   0.228853882526959 0.000000000000000 0.922264707241752
   0.276972662236656 0.500000000000000 0.087952346648017
   0.894091106629485 0.000000000000000 0.914490608973825
   0.791519463052087 0.500000000000000 0.585949962546670
   0.591955761746669 0.000000000000000 0.591590910495805
   0.723027337763344 0.500000000000000 0.912047653351983
   0.448677793046006 0.000000000000000 0.094931310344703
