Generated by rss_polymlp
1.0
   22.115658755732042 0.000000000000000 0.000000000000000
   0.000000000000000 3.946880407216069 0.000000000000000
   -1.582296905565826 0.000000000000000 15.684050588031658
 Ca  
 32  
Direct
   0.366511659558723 0.000000000000000 0.242719020088203
   0.133488340441277 0.500000000000000 0.757280979911797
   0.007764434192137 0.000000000000000 0.184301501714940
   0.407553748264388 0.000000000000000 0.988676638528174
   0.452618043366640 0.500000000000000 0.407218569687154
   0.492235565807863 0.500000000000000 0.815698498285060
   0.395162426277037 0.000000000000000 0.601411401004139
   0.282205059840193 0.500000000000000 0.407652529757483
   0.217794940159807 0.000000000000000 0.592347470242517
   0.181840973489595 0.000000000000000 0.219308182001796
   0.047381956633360 0.000000000000000 0.592781430312846
   0.092446251735612 0.500000000000000 0.011323361471826
   0.318159026510405 0.500000000000000 0.780691817998204
   0.281674093612086 0.500000000000000 0.085196713913979
   0.104837573722963 0.500000000000000 0.398588598995861
   0.218325906387914 0.000000000000000 0.914803286086021
   0.866511659558723 0.500000000000000 0.242719020088203
   0.633488340441277 0.000000000000000 0.757280979911797
   0.507764434192137 0.500000000000000 0.184301501714940
   0.907553748264388 0.500000000000000 0.988676638528174
   0.952618043366640 0.000000000000000 0.407218569687154
   0.992235565807863 0.000000000000000 0.815698498285060
   0.895162426277037 0.500000000000000 0.601411401004139
   0.782205059840193 0.000000000000000 0.407652529757483
   0.717794940159807 0.500000000000000 0.592347470242517
   0.681840973489595 0.500000000000000 0.219308182001796
   0.547381956633360 0.500000000000000 0.592781430312846
   0.592446251735612 0.000000000000000 0.011323361471826
   0.818159026510405 0.000000000000000 0.780691817998204
   0.781674093612086 0.000000000000000 0.085196713913979
   0.604837573722963 0.000000000000000 0.398588598995861
   0.718325906387914 0.500000000000000 0.914803286086021
