Generated by rss_polymlp
1.0
   6.997619264842248 0.000000000000000 0.000000000000000
   2.605404595669798 9.013480049227494 0.000000000000000
   2.209289472823432 1.408354637743804 10.976004605949170
 Ca  
 16  
Direct
   0.725525887244049 0.768102303152059 0.747494825889527
   0.000000000000000 0.500000000000000 0.000000000000000
   0.871065903693066 0.267191985569510 0.772580033357637
   0.145452418550128 0.872771529391285 0.869513556016027
   0.000000000000000 0.000000000000000 0.500000000000000
   0.854547581449872 0.127228470608715 0.130486443983973
   0.384994172978950 0.167510941285427 0.912849179501644
   0.634674127448546 0.447823821810242 0.326567907385427
   0.500000000000000 0.500000000000000 0.000000000000000
   0.573261860258729 0.839107716651369 0.414173310614877
   0.128934096306934 0.732808014430490 0.227419966642363
   0.615005827021050 0.832489058714573 0.087150820498356
   0.274474112755951 0.231897696847941 0.252505174110473
   0.000000000000000 0.500000000000000 0.500000000000000
   0.426738139741271 0.160892283348631 0.585826689385123
   0.365325872551454 0.552176178189758 0.673432092614573
