Generated by rss_polymlp
1.0
   3.904569667036144 0.000000000000000 0.000000000000000
   -1.952284833518072 3.381456522499447 0.000000000000000
   0.000000000000000 0.000000000000000 6.409645248600342
 Ca  
 2  
Direct
   0.666666666666667 0.333333333333333 0.750000000000000
   0.333333333333333 0.666666666666667 0.250000000000000
