Generated by rss_polymlp
1.0
   7.193325539840856 0.000000000000000 0.000000000000000
   -2.403470344518722 9.492884124217253 0.000000000000000
   -1.480820657057880 -4.920221592487379 15.693418866019186
 Ca  
 16  
Direct
   0.641881968061201 0.675572687680254 0.930289149897309
   0.480341475301309 0.002360353017582 0.952017672583865
   0.655709873491653 0.274962647998947 0.169933545548110
   0.213059067905859 0.464033863795268 0.188947837358400
   0.123171691736853 0.659724488563773 0.928360917871312
   0.964594674416055 0.976813824952571 0.857968953914173
   0.415686704793269 0.835372041114272 0.140941875697795
   0.374357240949165 0.228472499479599 0.334196231006999
   0.838332654861254 0.666926086265294 0.146929780718313
   0.215294410683371 0.836809446406540 0.349805830331278
   0.026259129109944 0.041734893004852 0.091091365724280
   0.820884955196752 0.042183132637595 0.317585346424016
   0.635736058723567 0.654801580963179 0.352062053231682
   0.358590302071321 0.359030585069042 0.984334098156977
   0.008255398284889 0.457162758734686 0.382059331081987
   0.852849198735913 0.334662019724932 0.972247097545147
