Generated by rss_polymlp
1.0
   12.727458580484390 0.000000000000000 0.000000000000000
   0.000000000000000 3.852904627337381 0.000000000000000
   -3.338002329252144 0.000000000000000 15.715907316187922
 Ca  
 16  
Direct
   0.339520148781802 0.500000000000000 0.353191077586700
   0.000000000000000 0.000000000000000 0.000000000000000
   0.175566443338835 0.000000000000000 0.703126809276694
   0.772232258147329 0.500000000000000 0.081267105925092
   0.603925341697547 0.000000000000000 0.429869181111345
   0.227767741852671 0.500000000000000 0.918732894074908
   0.660479851218198 0.500000000000000 0.646808922413300
   0.444702892845503 0.500000000000000 0.783518852694133
   0.555297107154497 0.500000000000000 0.216481147305867
   0.284483886582167 0.000000000000000 0.137466600995682
   0.500000000000000 0.000000000000000 0.000000000000000
   0.054528053092338 0.500000000000000 0.216295573435770
   0.715516113417833 0.000000000000000 0.862533399004318
   0.396074658302453 0.000000000000000 0.570130818888655
   0.945471946907662 0.500000000000000 0.783704426564230
   0.824433556661165 0.000000000000000 0.296873190723306
