Generated by rss_polymlp
1.0
   12.590122262496859 0.000000000000000 0.000000000000000
   0.000000000000000 2.916111121545589 0.000000000000000
   -2.862073531520359 0.000000000000000 5.753744217339945
 Al  Cu  
 10  4  
Direct
   0.878065789180289 0.500000000000000 0.202315120142208
   0.000000000000000 0.000000000000000 0.000000000000000
   0.798452970992712 0.500000000000000 0.720986891174827
   0.621934210819711 0.000000000000000 0.797684879857792
   0.701547029007288 0.000000000000000 0.279013108825173
   0.378065789180289 0.000000000000000 0.202315120142208
   0.500000000000000 0.500000000000000 0.000000000000000
   0.298452970992712 0.000000000000000 0.720986891174827
   0.121934210819711 0.500000000000000 0.797684879857792
   0.201547029007288 0.500000000000000 0.279013108825173
   0.920211268003513 0.000000000000000 0.566130496668345
   0.579788731996487 0.500000000000000 0.433869503331655
   0.420211268003513 0.500000000000000 0.566130496668345
   0.079788731996487 0.000000000000000 0.433869503331655
