Generated by rss_polymlp
1.0
   4.446553782213317 0.000000000000000 0.000000000000000
   -0.085748319722301 5.140864137213006 0.000000000000000
   -1.672157591262265 -2.411777459701593 7.706649183261857
 Al  Cu  
 5  2  
Direct
   0.781641759985590 0.131021253945944 0.935006764006788
   0.296907238050269 0.395359000493689 0.941397939449792
   0.283239653203538 0.889859345584360 0.964099096112572
   0.031162680951153 0.569819764578390 0.246625781733091
   0.544956592168810 0.294723647586810 0.279491189716269
   0.028106831524334 0.053497028464542 0.239574099402169
   0.533720399529285 0.787295613917238 0.246704454625993
