Generated by rss_polymlp
1.0
   12.667768465947313 0.000000000000000 0.000000000000000
   0.000000000000000 2.822872334697617 0.000000000000000
   -3.877541929355442 0.000000000000000 6.287691326493919
 Al  Cu  
 10  4  
Direct
   0.002320574883652 0.500000000000000 0.935188513566933
   0.244340681801294 0.500000000000000 0.978677832699421
   0.988446499591972 0.000000000000000 0.269423056861793
   0.223701253434821 0.000000000000000 0.643318251367129
   0.717333700781492 0.500000000000000 0.266433906482993
   0.502320574883652 0.000000000000000 0.935188513566933
   0.744340681801294 0.000000000000000 0.978677832699421
   0.488446499591972 0.500000000000000 0.269423056861793
   0.723701253434821 0.500000000000000 0.643318251367129
   0.217333700781492 0.000000000000000 0.266433906482993
   0.043550536334789 0.500000000000000 0.603027196649641
   0.873496213130798 0.000000000000000 0.593429353803694
   0.543550536334789 0.000000000000000 0.603027196649641
   0.373496213130798 0.500000000000000 0.593429353803694
