Generated by rss_polymlp
1.0
   14.992691257227477 0.000000000000000 0.000000000000000
   0.000000000000000 2.551637946134180 0.000000000000000
   -7.398609489647278 0.000000000000000 10.501720988923505
 Al  Cu  
 6  6  
Direct
   0.708053428565642 0.000000000000000 0.293897719621921
   0.019635655168656 0.000000000000000 0.243829450884480
   0.894509799500847 0.500000000000000 0.021688600424833
   0.208053428565642 0.500000000000000 0.293897719621921
   0.519635655168656 0.500000000000000 0.243829450884480
   0.394509799500847 0.000000000000000 0.021688600424833
   0.312899567142035 0.500000000000000 0.827333135950099
   0.227534120317491 0.000000000000000 0.633085702651997
   0.141542388444032 0.500000000000000 0.438639259779162
   0.812899567142035 0.000000000000000 0.827333135950099
   0.727534120317491 0.500000000000000 0.633085702651997
   0.641542388444032 0.000000000000000 0.438639259779162
