Generated by rss_polymlp
1.0
   9.852360183563169 0.000000000000000 0.000000000000000
   0.000000000000000 2.830973459897077 0.000000000000000
   -0.601670377266490 0.000000000000000 6.118013567423136
 Al  Cu  
 6  6  
Direct
   0.314876753079578 0.500000000000000 0.981137260635343
   0.388400457712067 0.000000000000000 0.623907922822829
   0.076826450296569 0.000000000000000 0.925259818193171
   0.814876753079578 0.000000000000000 0.981137260635343
   0.888400457712067 0.500000000000000 0.623907922822829
   0.576826450296569 0.500000000000000 0.925259818193171
   0.153092554592499 0.500000000000000 0.601628152373857
   0.236364016435434 0.000000000000000 0.281012494722019
   0.481929494165151 0.500000000000000 0.318977203684526
   0.653092554592499 0.000000000000000 0.601628152373857
   0.736364016435433 0.500000000000000 0.281012494722019
   0.981929494165151 0.000000000000000 0.318977203684526
