Generated by rss_polymlp
1.0
   2.678564392707691 0.000000000000000 0.000000000000000
   1.339271568962133 4.299207758043600 0.000000000000000
   0.010945377205935 1.462064476379241 13.174203806576077
 Al  Cu  
 3  4  
Direct
   0.159799570166520 0.336997791473453 0.155082927811009
   0.289284595972005 0.080015712480798 0.911477019756008
   0.448878278096036 0.757962777605986 0.262650184747518
   0.990218563554465 0.678886774717636 0.821212832482825
   0.870754387349129 0.915718266464036 0.077960083648496
   0.577526256474969 0.502891979290816 0.990099663357850
   0.704033715037448 0.251802175343937 0.754218260305803
