Generated by rsspolymlp
1.0
   2.797263630933219 0.000000000000000 0.000000000000000
   -1.398631815466610 2.422501365470466 0.000000000000000
   0.000000000000000 0.000000000000000 25.165709360590014
 Al  
 6  
Direct
   0.000000000000000 0.000000000000000 0.118736676440324
   0.666666666666667 0.333333333333333 0.214596656893009
   0.666666666666667 0.333333333333333 0.452070009773658
   0.333333333333333 0.666666666666667 0.547929990226342
   0.333333333333333 0.666666666666667 0.785403343106991
   0.000000000000000 0.000000000000000 0.881263323559676
