Generated by rsspolymlp
1.0
   11.050998983282977 0.000000000000000 0.000000000000000
   0.000000000000000 11.050998982339161 0.000000000000000
   -0.000011230973803 0.000000000000000 2.627771544457715
 Al  
 8  
Direct
   0.656681848404211 0.000000000000000 0.500002742556281
   0.500000000000000 0.843318152463654 0.000000000000000
   0.500000000000000 0.156681847536346 0.000000000000000
   0.343318151595789 0.000000000000000 0.499997257443719
   0.156681848404211 0.500000000000000 0.500002742556281
   0.000000000000000 0.343318152463654 0.000000000000000
   0.000000000000000 0.656681847536346 0.000000000000000
   0.843318151595789 0.500000000000000 0.499997257443719
