Generated by rss_polymlp
1.0
   2.704390098394695 0.000000000000000 0.000000000000000
   1.352192293897458 5.075423812945923 0.000000000000000
   0.140655626423679 0.764146977634092 11.945920133292892
 Al  Z  
 4  0  
Direct
   0.636049389674232 0.727901435620227 0.000000090539380
   0.996077911455998 0.025376913510810 0.831445628228247
   0.363950610325768 0.272098564379773 0.999999909460620
   0.003922088544002 0.974623086489190 0.168554371771753
