Generated by rss_polymlp
1.0
   2.826804634570811 0.000000000000000 0.000000000000000
   -0.000000043023041 2.826805154258408 0.000000000000000
   -0.041776376917543 -0.029935954589177 13.907307643181417
 Al  Z  
 4  0  
Direct
   0.748907690812897 0.749217392564300 0.426091253727644
   0.246733301144732 0.247659287273093 0.278958165080708
   0.753266698855268 0.752340712726907 0.721041834919292
   0.251092309187103 0.250782607435700 0.573908746272356
