Generated by rsspolymlp
1.0
   2.777646972379036 0.000000000000000 0.000000000000000
   0.000000000000000 11.680602146416911 0.000000000000000
   0.000000000000000 0.000000000000000 5.918372615049152
 Al  
 8  
Direct
   0.500000000000000 0.000000000000000 0.780082176448807
   0.500000000000000 0.000000000000000 0.219917823551193
   0.000000000000000 0.851958071756432 0.500000000000000
   0.500000000000000 0.648041928243568 0.500000000000000
   0.000000000000000 0.500000000000000 0.780082176448807
   0.000000000000000 0.500000000000000 0.219917823551193
   0.500000000000000 0.351958071756432 0.500000000000000
   0.000000000000000 0.148041928243568 0.500000000000000
