Generated by rss_polymlp
1.0
   2.749465196115578 0.000000000000000 0.000000000000000
   -1.374732496615603 2.381106790092757 0.000000000000000
   -0.137248915307958 -0.900395689941149 10.417781465317754
 Al  Z  
 2  0  
Direct
   0.638576655286691 0.788887900159730 0.382463522691403
   0.361423344713309 0.211112099840270 0.617536477308597
