Generated by rsspolymlp
1.0
   2.279254096321074 0.000000000000000 0.000000000000000
   -0.514560250740648 6.870894493324238 0.000000000000000
   0.917469886188771 1.367756769335504 9.139439438806336
Al  Cu  
3  1  
Direct
   0.000000000000000 0.000000000000000 0.000000000000000
   0.535620919271742 0.821221043978689 0.969091614366415
   0.627076174414862 0.353253065009299 0.354008946029200
   0.341475306063111 0.764014148707075 0.073331162183308
