Generated by rsspolymlp
1.0
   1.882946013981982 0.000000000000000 0.000000000000000
   0.819910535720036 7.645365290065501 0.000000000000000
   0.101311276250168 0.120679957463074 11.529994054773322
Al  Cu  
3  1  
Direct
   0.000000000000000 0.000000000000000 0.000000000000000
   0.161749671192103 0.728840470894250 0.083545377895319
   0.098231285591898 0.710634791780308 0.377120262921991
   0.479415781204685 0.151171309395034 0.602831285272145
