Generated by rsspolymlp
1.0
   5.549879802291288 0.000000000000000 0.000000000000000
   1.865303947263732 6.116675686449216 0.000000000000000
   1.004526879075141 1.868291988887232 10.862176145619118
Al  Cu  
3  1  
Direct
   0.000000000000000 0.000000000000000 0.000000000000000
   0.004036183610424 0.634513439189452 0.027223030646992
   0.700265718961563 0.662340692487264 0.944147172697943
   0.408520366946390 0.600764035168331 0.799606546691694
