Generated by rss_polymlp
1.0
   2.732516709976923 0.000000000000000 0.000000000000000
   1.366258348465639 2.366428901332880 0.000000000000000
   0.077292144084146 1.277713789164344 12.211238429609457
 Al  Cu  
 2  1  
Direct
   0.251691535302203 0.731593148832624 0.121325637831000
   0.337079329207422 0.540830155830895 0.474634048678845
   0.627718768047558 0.969544985569961 0.297979842296462
