Generated by rss_polymlp
1.0
   2.762853439792881 0.000000000000000 0.000000000000000
   0.000000000000000 11.528979641583348 0.000000000000000
   0.000000000000000 0.000000000000000 2.881003307891668
 Al  Cu  
 4  2  
Direct
   0.500000000000000 0.854612902961509 0.000000000000000
   0.000000000000000 0.645387097038491 0.000000000000000
   0.000000000000000 0.354612902961509 0.000000000000000
   0.500000000000000 0.145387097038491 0.000000000000000
   0.000000000000000 0.000000000000000 0.500000000000000
   0.500000000000000 0.500000000000000 0.500000000000000
