Generated by rss_polymlp
1.0
   3.973318173926807 0.000000000000000 0.000000000000000
   0.000000117232363 5.222704847006293 0.000000000000000
   0.735763487539200 1.879991299063920 11.770097749335269
 Al  Cu  
 6  1  
Direct
   0.200742728776256 0.308635518212430 0.418182721163075
   0.639717734380321 0.627188705505803 0.747734078446064
   0.159105486648435 0.396557311867266 0.643035007020785
   0.635374244054325 0.118451630199523 0.771190045460426
   0.677045729185093 0.051977296193834 0.546152920666528
   0.192715176733912 0.782017221447115 0.461533807469772
   0.152880006836834 0.892792257282985 0.676654290720023
