Generated by rss_polymlp
1.0
   4.847354258113095 0.000000000000000 0.000000000000000
   -2.293281098147980 4.331710689141566 0.000000000000000
   -0.196993746127491 -0.174285843008923 11.221498766832507
 Al  Cu  
 6  1  
Direct
   0.837537207487373 0.897803341486452 0.863153725804605
   0.997320856609937 0.221973843795166 0.645335716368203
   0.490827980632111 0.217596323359242 0.536528428452691
   0.183100448961437 0.563672056603369 0.863153754085497
   0.506751546022090 0.228332491453093 0.803374343912928
   0.496504050188276 0.721423430079594 0.631651248416042
   0.998602489632710 0.722838049326186 0.666818167688182
