Generated by rss_polymlp
1.0
   2.643807333283607 0.000000000000000 0.000000000000000
   -1.321903666641804 2.289604313335196 0.000000000000000
   0.000000000000000 0.000000000000000 31.032695968488742
 Al  Cu  
 3  12  
Direct
   0.000000000000000 0.000000000000000 0.272386419529660
   0.666666666666667 0.333333333333333 0.605719752862994
   0.333333333333333 0.666666666666667 0.939053086196327
   0.333333333333333 0.666666666666667 0.204566317977534
   0.000000000000000 0.000000000000000 0.138359782636747
   0.000000000000000 0.000000000000000 0.006787246996746
   0.666666666666667 0.333333333333333 0.072985508143391
   0.000000000000000 0.000000000000000 0.537899651310867
   0.666666666666667 0.333333333333333 0.471693115970080
   0.666666666666667 0.333333333333333 0.340120580330079
   0.333333333333333 0.666666666666667 0.406318841476724
   0.666666666666667 0.333333333333333 0.871232984644201
   0.333333333333333 0.666666666666667 0.805026449303413
   0.333333333333333 0.666666666666667 0.673453913663412
   0.000000000000000 0.000000000000000 0.739652174810058
