Generated by rss_polymlp
1.0
   5.784925815262723 0.000000000000000 0.000000000000000
   0.000000000000000 5.784925815262723 0.000000000000000
   0.000000000000000 0.000000000000000 3.717969613301550
 Al  Cu  
 2  8  
Direct
   0.000000000000000 0.000000000000000 0.500000000000000
   0.500000000000000 0.500000000000000 0.000000000000000
   0.601083378789453 0.198694611827820 0.500000000000000
   0.398916621210547 0.801305388172180 0.500000000000000
   0.698694611827820 0.898916621210547 0.000000000000000
   0.301305388172180 0.101083378789453 0.000000000000000
   0.101083378789453 0.698694611827820 0.000000000000000
   0.898916621210547 0.301305388172180 0.000000000000000
   0.198694611827820 0.398916621210547 0.500000000000000
   0.801305388172180 0.601083378789453 0.500000000000000
