Generated by rss_polymlp
1.0
   4.164551679648095 0.000000000000000 0.000000000000000
   0.000000000000000 7.529694208035568 0.000000000000000
   0.000000000000000 0.000000000000000 4.486146340469061
 Al  Cu  
 2  8  
Direct
   0.000000000000000 0.500000000000000 0.944247975292120
   0.000000000000000 0.000000000000000 0.444247975292120
   0.500000000000000 0.669439300068125 0.132745446523475
   0.000000000000000 0.834124014737486 0.952388213179623
   0.000000000000000 0.165875985262514 0.952388213179623
   0.500000000000000 0.330560699931875 0.132745446523475
   0.500000000000000 0.169439300068125 0.632745446523475
   0.000000000000000 0.334124014737486 0.452388213179623
   0.000000000000000 0.665875985262514 0.452388213179623
   0.500000000000000 0.830560699931875 0.632745446523475
