Generated by rss_polymlp
1.0
   1.020551185891718 0.000000000000000 0.000000000000000
   0.000000000000000 6.003759914499910 0.000000000000000
   -0.076991841724559 0.000000000000000 8.359451522970032
 Z  Cu  
 0  2  
Direct
   0.009721600443399 0.000000000000000 0.628858903512288
   0.990278399556601 0.000000000000000 0.371141096487712
