Generated by rss_polymlp
1.0
   9.356856673934949 0.000000000000000 0.000000000000000
   0.000000000000000 2.598487677529735 0.000000000000000
   -0.986247010042992 0.000000000000000 6.087847743768595
 Al  Cu  
 2  8  
Direct
   0.101907759774009 0.000000000000000 0.182166558524581
   0.601907759774009 0.500000000000000 0.182166558524581
   0.176566874835376 0.500000000000000 0.860336897458711
   0.414654885893438 0.000000000000000 0.916310731170593
   0.343190182058884 0.500000000000000 0.247026369098495
   0.257821653018131 0.000000000000000 0.552254134423913
   0.676566874835376 0.000000000000000 0.860336897458711
   0.914654885893438 0.500000000000000 0.916310731170593
   0.843190182058884 0.000000000000000 0.247026369098495
   0.757821653018131 0.500000000000000 0.552254134423913
