Generated by rss_polymlp
1.0
   2.662376690539487 0.000000000000000 0.000000000000000
   0.000000000000000 3.570350817744588 0.000000000000000
   0.000000000000000 0.000000000000000 13.058291694686886
 Al  Cu  
 2  8  
Direct
   0.500000000000000 0.000000000000000 0.000000000000000
   0.000000000000000 0.500000000000000 0.500000000000000
   0.500000000000000 0.000000000000000 0.200558953395725
   0.000000000000000 0.500000000000000 0.101097711944283
   0.000000000000000 0.500000000000000 0.299441046604275
   0.500000000000000 0.000000000000000 0.398902288055717
   0.000000000000000 0.500000000000000 0.700558953395725
   0.500000000000000 0.000000000000000 0.601097711944283
   0.500000000000000 0.000000000000000 0.799441046604275
   0.000000000000000 0.500000000000000 0.898902288055717
