Generated by rss_polymlp
1.0
   8.401282959787473 0.000000000000000 0.000000000000000
   0.000000000000000 2.616317480381968 0.000000000000000
   -2.291037447336890 0.000000000000000 5.870004204081911
 Al  Cu  
 2  8  
Direct
   0.035066372616126 0.000000000000000 0.937723559630913
   0.535066372616126 0.500000000000000 0.937723559630913
   0.186305222075646 0.500000000000000 0.331318992467789
   0.361720637568273 0.000000000000000 0.135873688336087
   0.246746148496907 0.000000000000000 0.713064340907396
   0.472870308636827 0.000000000000000 0.552346192661353
   0.686305222075646 0.000000000000000 0.331318992467789
   0.861720637568273 0.500000000000000 0.135873688336087
   0.746746148496907 0.500000000000000 0.713064340907396
   0.972870308636827 0.500000000000000 0.552346192661353
