Generated by rsspolymlp
1.0
   2.459621590135792 0.000000000000000 0.000000000000000
   -1.229810199392318 2.130095707221696 0.000000000000000
   -0.000068607098291 -1.419986345778608 5.339237618482290
 Cu  
 1  
Direct
   0.500000000000000 0.500000000000000 0.000000000000000
