Generated by rss_polymlp
1.0
   2.582615914646568 0.000000000000000 0.000000000000000
   0.000000026420265 4.257480802352119 0.000000000000000
   0.822018418486128 0.414529408955368 10.159454720569604
 Al  Cu  
 1  3  
Direct
   0.575341404116018 0.052206500748060 0.981595548191486
   0.145302881407473 0.205420724751469 0.761790677086595
   0.075860974523193 0.550659131666989 0.979963225853668
   0.643618968966890 0.705369024751482 0.767081239552158
