Generated by rsspolymlp
1.0
   3.688951385874658 0.000000000000000 0.000000000000000
   0.000000000000000 3.688951385874658 0.000000000000000
   0.000000000000000 0.000000000000000 7.355007236279457
 Al  Cu  
 2  6  
Direct
   0.500000000000000 0.500000000000000 0.000000000000000
   0.000000000000000 0.000000000000000 0.500000000000000
   0.000000000000000 0.500000000000000 0.250000000000000
   0.500000000000000 0.000000000000000 0.250000000000000
   0.000000000000000 0.000000000000000 0.000000000000000
   0.500000000000000 0.000000000000000 0.750000000000000
   0.000000000000000 0.500000000000000 0.750000000000000
   0.500000000000000 0.500000000000000 0.500000000000000
