Generated by rsspolymlp
1.0
   2.729472196353174 0.000000000000000 0.000000000000000
   0.000000000000000 3.505072450548445 0.000000000000000
   0.000000000000000 0.000000000000000 5.273323414475690
 Al  Cu  
 1  3  
Direct
   0.000000000000000 0.000000000000000 0.000000000000000
   0.000000000000000 0.000000000000000 0.500000000000000
   0.500000000000000 0.500000000000000 0.748177543324996
   0.500000000000000 0.500000000000000 0.251822456675004
