Generated by rsspolymlp
1.0
   2.663231762649611 0.000000000000000 0.000000000000000
   -1.331615881324806 2.306426362620172 0.000000000000000
   0.000000000000000 0.000000000000000 24.632080093328263
 Al  Cu  
 3  9  
Direct
   0.666666666666667 0.333333333333333 0.333333333333333
   0.333333333333333 0.666666666666667 0.666666666666667
   -0.000000000000000 -0.000000000000000 0.000000000000000
   0.000000000000000 0.000000000000000 0.249292015570890
   0.333333333333333 0.666666666666667 0.166666666666667
   0.666666666666667 0.333333333333333 0.084041317762443
   0.666666666666667 0.333333333333333 0.582625348904224
   -0.000000000000000 -0.000000000000000 0.500000000000000
   0.333333333333333 0.666666666666667 0.417374651095776
   0.333333333333333 0.666666666666667 0.915958682237557
   0.666666666666667 0.333333333333333 0.833333333333333
   0.000000000000000 -0.000000000000000 0.750707984429110
