Generated by rsspolymlp
1.0
   5.316340562942868 0.000000000000000 0.000000000000000
   0.000000000000000 6.993860511392010 0.000000000000000
   0.000000000000000 0.000000000000000 2.728775602376901
 Al  Cu  
 2  6  
Direct
   0.500000000000000 0.000000000000000 0.000000000000000
   0.000000000000000 0.500000000000000 0.000000000000000
   0.750000000000000 0.250000000000000 0.500000000000000
   0.750000000000000 0.750000000000000 0.500000000000000
   0.500000000000000 0.500000000000000 0.000000000000000
   0.250000000000000 0.750000000000000 0.500000000000000
   0.250000000000000 0.250000000000000 0.500000000000000
   0.000000000000000 0.000000000000000 0.000000000000000
