Generated by rsspolymlp
1.0
   2.633908831323432 0.000000000000000 0.000000000000000
   0.000000000000000 10.700818616288498 0.000000000000000
   0.000000000000000 0.000000000000000 11.441729799751801
 Al  Cu  
 12  4  
Direct
   0.000000000000000 0.000000000000000 0.944727245557726
   0.500000000000000 0.638773934813027 0.616215580315877
   0.000000000000000 0.861226065186973 0.616215580315877
   0.000000000000000 0.500000000000000 0.444727245557726
   0.500000000000000 0.138773934813027 0.116215580315877
   0.000000000000000 0.361226065186973 0.116215580315877
   0.500000000000000 0.000000000000000 0.444727245557726
   0.000000000000000 0.638773934813027 0.116215580315877
   0.500000000000000 0.861226065186973 0.116215580315877
   0.500000000000000 0.500000000000000 0.944727245557726
   0.000000000000000 0.138773934813027 0.616215580315877
   0.500000000000000 0.361226065186973 0.616215580315877
   0.500000000000000 0.000000000000000 0.758617750912583
   0.500000000000000 0.500000000000000 0.258617750912583
   0.000000000000000 0.000000000000000 0.258617750912583
   0.000000000000000 0.500000000000000 0.758617750912583
