Generated by rss_polymlp
1.0
   2.728662221025140 0.000000000000000 0.000000000000000
   1.364330813703146 4.307110490883875 0.000000000000000
   0.686689998109583 -0.043565725343320 11.448048779710245
 Al  Cu  
 3  1  
Direct
   0.621699899463539 0.260293176868740 0.188174801978209
   0.992427075607413 0.416084633096856 0.392328702072969
   0.923568959856292 0.710968479775879 0.080065242570006
   0.302660553911417 0.845736004054409 0.292752565995910
