Generated by rsspolymlp
1.0
   5.521380812541380 0.000000000000000 0.000000000000000
   0.000000000000000 7.806144477362309 0.000000000000000
   0.000000000000000 0.000000000000000 2.832610376888195
 Al  Cu  
 6  2  
Direct
   0.750000000000000 0.750000000000000 0.000000000000000
   0.750000000000000 0.250000000000000 0.000000000000000
   0.500000000000000 0.000000000000000 0.500000000000000
   0.250000000000000 0.250000000000000 0.000000000000000
   0.250000000000000 0.750000000000000 0.000000000000000
   0.000000000000000 0.500000000000000 0.500000000000000
   0.000000000000000 0.000000000000000 0.500000000000000
   0.500000000000000 0.500000000000000 0.500000000000000
