Generated by rsspolymlp
1.0
   2.683484101987704 0.000000000000000 0.000000000000000
   -0.000000000060425 4.462657523344278 0.000000000000000
   -0.852745893878669 -0.107519685852491 11.033679314608717
 Al  Cu  
 3  1  
Direct
   0.133014187464814 0.028388017718816 0.937533403055601
   0.643052120782710 0.531128913576663 0.969121533581736
   0.709283351048902 0.191167367321558 0.177542890877794
   0.203797408037565 0.700613686092898 0.160279281095992
