Generated by rsspolymlp
1.0
   3.860387944275350 0.000000000000000 0.000000000000000
   0.000000000000000 5.236897436329910 0.000000000000000
   0.000000000000000 0.000000000000000 7.069722667876292
 Al  Cu  
 6  2  
Direct
   0.000000000000000 0.500000000000000 0.892887819624837
   0.000000000000000 0.252209409236435 0.569828090472177
   0.000000000000000 0.747790590763565 0.569828090472177
   0.500000000000000 0.000000000000000 0.392887819624837
   0.500000000000000 0.752209409236435 0.069828090472177
   0.500000000000000 0.247790590763565 0.069828090472177
   0.500000000000000 0.500000000000000 0.395885335566834
   0.000000000000000 0.000000000000000 0.895885335566833
