Generated by rsspolymlp
1.0
   2.811374505305396 0.000000000000000 0.000000000000000
   0.000000000000000 2.811374505305396 0.000000000000000
   0.000000000000000 0.000000000000000 7.703115484994751
 Al  Cu  
 3  1  
Direct
   0.000000000000000 0.000000000000000 0.000000000000000
   0.500000000000000 0.500000000000000 0.723921311348409
   0.500000000000000 0.500000000000000 0.276078688651591
   0.000000000000000 0.000000000000000 0.500000000000000
