Generated by rsspolymlp
1.0
   9.156861260533237 0.000000000000000 0.000000000000000
   0.000000000000000 2.833863012142238 0.000000000000000
   -0.903389533707060 0.000000000000000 4.706240786120455
 Al  Cu  
 6  2  
Direct
   0.758539059857996 0.000000000000000 0.258504394540086
   0.500000000000000 0.500000000000000 0.000000000000000
   0.741460940142004 0.500000000000000 0.741495605459914
   0.258539059857996 0.500000000000000 0.258504394540086
   0.000000000000000 0.000000000000000 0.000000000000000
   0.241460940142004 0.000000000000000 0.741495605459914
   0.500000000000000 0.000000000000000 0.500000000000000
   0.000000000000000 0.500000000000000 0.500000000000000
