Generated by rsspolymlp
1.0
   8.826928927349169 0.000000000000000 0.000000000000000
   0.000000000000000 2.871114672838807 0.000000000000000
   -3.547009184270181 0.000000000000000 4.966982138809655
 Al  Cu  
 6  2  
Direct
   0.973177922146473 0.000000000000000 0.868959839770426
   0.743413023101259 0.000000000000000 0.318679629631716
   0.122644466642910 0.000000000000000 0.582378325558612
   0.473177922146473 0.500000000000000 0.868959839770426
   0.243413023101259 0.500000000000000 0.318679629631716
   0.622644466642910 0.500000000000000 0.582378325558612
   0.876274436659857 0.500000000000000 0.118658932136932
   0.376274436659857 0.000000000000000 0.118658932136932
