Generated by rsspolymlp
1.0
   9.156859307827354 0.000000000000000 0.000000000000000
   0.000000000000000 2.833863460391623 0.000000000000000
   -0.903391271012680 0.000000000000000 4.706240564525765
 Al  Cu  
 6  2  
Direct
   0.000000000000000 0.500000000000000 0.500000000000000
   0.741460931246245 0.000000000000000 0.241495591218411
   0.758539068753755 0.500000000000000 0.758504408781589
   0.500000000000000 0.000000000000000 0.500000000000000
   0.241460931246245 0.500000000000000 0.241495591218411
   0.258539068753755 0.000000000000000 0.758504408781589
   0.000000000000000 0.000000000000000 0.000000000000000
   0.500000000000000 0.500000000000000 0.000000000000000
