Generated by rsspolymlp
1.0
   3.930453354540230 0.000000000000000 0.000000000000000
   0.000000000000000 3.930453354540230 0.000000000000000
   0.000000000000000 0.000000000000000 3.930453354540230
 Al  Cu  
 3  1  
Direct
   0.000000000000000 0.000000000000000 0.500000000000000
   0.000000000000000 0.500000000000000 0.000000000000000
   0.500000000000000 0.000000000000000 0.000000000000000
   0.500000000000000 0.500000000000000 0.500000000000000
