Generated by rss_polymlp
1.0
   2.764517598688160 0.000000000000000 0.000000000000000
   0.000000000000000 2.764517598688160 0.000000000000000
   0.000000000000000 0.000000000000000 16.206678683689006
 Al  Cu  
 2  8  
Direct
   0.000000000000000 0.000000000000000 0.000000000000000
   0.500000000000000 0.500000000000000 0.500000000000000
   0.500000000000000 0.500000000000000 0.298238183892730
   0.500000000000000 0.500000000000000 0.103005039667544
   0.000000000000000 0.000000000000000 0.201761816107270
   0.000000000000000 0.000000000000000 0.396994960332456
   0.000000000000000 0.000000000000000 0.798238183892730
   0.000000000000000 0.000000000000000 0.603005039667544
   0.500000000000000 0.500000000000000 0.701761816107270
   0.500000000000000 0.500000000000000 0.896994960332456
