Generated by rss_polymlp
1.0
   2.637806414696204 0.000000000000000 0.000000000000000
   0.000000312863968 4.087814473399418 0.000000000000000
   0.046331409115995 0.615740435178625 10.139985717992712
 Al  Cu  
 2  1  
Direct
   0.360846654974648 0.884418894755964 0.320447797760118
   0.364466002572634 0.415458032755631 0.114383177072418
   0.864771120845764 0.918074628473249 0.097011929427467
