Generated by rsspolymlp
1.0
   2.839942106192485 0.000000000000000 0.000000000000000
   -1.419971053096242 2.459462009239775 0.000000000000000
   0.000000000000000 0.000000000000000 19.040342196123650
 Al  Cu  
 6  3  
Direct
   0.333333333333333 0.666666666666667 0.167478890024715
   0.666666666666667 0.333333333333333 0.046597577899495
   0.000000000000000 0.000000000000000 0.500812223358048
   0.333333333333333 0.666666666666667 0.379930911232829
   0.666666666666667 0.333333333333333 0.834145556691382
   0.000000000000000 0.000000000000000 0.713264244566162
   0.666666666666667 0.333333333333333 0.273435679816328
   0.333333333333333 0.666666666666667 0.606769013149662
   0.000000000000000 0.000000000000000 0.940102346482995
