Generated by rsspolymlp
1.0
   2.762853238048605 0.000000000000000 0.000000000000000
   0.000000000000000 11.528980973179399 0.000000000000000
   0.000000000000000 0.000000000000000 2.881003400046267
 Al  Cu  
 4  2  
Direct
   0.500000000000000 0.645387098627747 0.500000000000000
   0.000000000000000 0.854612901372253 0.500000000000000
   0.000000000000000 0.145387098627747 0.500000000000000
   0.500000000000000 0.354612901372253 0.500000000000000
   0.500000000000000 0.000000000000000 0.000000000000000
   0.000000000000000 0.500000000000000 0.000000000000000
