Generated by rsspolymlp
1.0
   11.640729588318305 0.000000000000000 0.000000000000000
   0.000000000000000 2.791803548197902 0.000000000000000
   -0.669545170799620 0.000000000000000 2.710327406121298
 Al  Cu  
 4  2  
Direct
   0.154611735665210 0.000000000000000 0.154609981616413
   0.345388264334790 0.500000000000000 0.845390018383587
   0.654611735665210 0.500000000000000 0.154609981616413
   0.845388264334790 0.000000000000000 0.845390018383587
   0.000000000000000 0.500000000000000 0.500000000000000
   0.500000000000000 0.000000000000000 0.500000000000000
