Generated by rsspolymlp
1.0
   3.001450701217062 0.000000000000000 0.000000000000000
   0.000000000000000 4.528881177542154 0.000000000000000
   0.000000000000000 0.000000000000000 6.812129391198932
 Al  Cu  
 4  2  
Direct
   0.500000000000000 0.500000000000000 0.195814725872515
   0.500000000000000 0.500000000000000 0.804185274127486
   0.000000000000000 0.000000000000000 0.695814725872514
   0.000000000000000 0.000000000000000 0.304185274127486
   0.500000000000000 0.000000000000000 0.000000000000000
   0.000000000000000 0.500000000000000 0.500000000000000
