Generated by rsspolymlp
1.0
   2.762853385405589 0.000000000000000 0.000000000000000
   0.000000000000000 11.528978269629995 0.000000000000000
   0.000000000000000 0.000000000000000 2.881003539535997
 Al  Cu  
 4  2  
Direct
   0.000000000000000 0.645387093370321 0.000000000000000
   0.500000000000000 0.854612906629679 0.000000000000000
   0.500000000000000 0.145387093370321 0.000000000000000
   0.000000000000000 0.354612906629679 0.000000000000000
   0.000000000000000 0.000000000000000 0.500000000000000
   0.500000000000000 0.500000000000000 0.500000000000000
