Generated by rsspolymlp
1.0
   2.762853587845474 0.000000000000000 0.000000000000000
   0.000000000000000 11.528978821589655 0.000000000000000
   0.000000000000000 0.000000000000000 2.881003270541724
 Al  Cu  
 4  2  
Direct
   0.000000000000000 0.645387095639968 0.500000000000000
   0.500000000000000 0.854612904360032 0.500000000000000
   0.500000000000000 0.145387095639968 0.500000000000000
   0.000000000000000 0.354612904360032 0.500000000000000
   0.000000000000000 0.000000000000000 0.000000000000000
   0.500000000000000 0.500000000000000 0.000000000000000
