Generated by rsspolymlp
1.0
   2.762853469663110 0.000000000000000 0.000000000000000
   0.000000000000000 11.528977387286915 0.000000000000000
   0.000000000000000 0.000000000000000 2.881003391497359
 Al  Cu  
 4  2  
Direct
   0.000000000000000 0.645387093899681 0.000000000000000
   0.500000000000000 0.854612906100319 0.000000000000000
   0.500000000000000 0.145387093899681 0.000000000000000
   0.000000000000000 0.354612906100319 0.000000000000000
   0.000000000000000 0.000000000000000 0.500000000000000
   0.500000000000000 0.500000000000000 0.500000000000000
