Generated by rsspolymlp
1.0
   2.762853282328112 0.000000000000000 0.000000000000000
   0.000000000000000 11.528978976426130 0.000000000000000
   0.000000000000000 0.000000000000000 2.881003449793210
 Al  Cu  
 4  2  
Direct
   0.000000000000000 0.645387096286693 0.000000000000000
   0.500000000000000 0.854612903713307 0.000000000000000
   0.500000000000000 0.145387096286693 0.000000000000000
   0.000000000000000 0.354612903713307 0.000000000000000
   0.000000000000000 0.000000000000000 0.500000000000000
   0.500000000000000 0.500000000000000 0.500000000000000
