Generated by rsspolymlp
1.0
   2.762853381918582 0.000000000000000 0.000000000000000
   0.000000000000000 11.528978062505821 0.000000000000000
   0.000000000000000 0.000000000000000 2.881003606935229
 Al  Cu  
 4  2  
Direct
   0.500000000000000 0.645387092306519 0.500000000000000
   0.000000000000000 0.854612907693481 0.500000000000000
   0.000000000000000 0.145387092306519 0.500000000000000
   0.500000000000000 0.354612907693481 0.500000000000000
   0.500000000000000 0.000000000000000 0.000000000000000
   0.000000000000000 0.500000000000000 0.000000000000000
