Generated by rss_polymlp
1.0
   2.567555485365640 0.000000000000000 0.000000000000000
   0.000000452170146 6.371788596931137 0.000000000000000
   0.017621985461649 0.108957723408794 12.483064403744750
 Al  Cu  
 1  7  
Direct
   0.855117603480378 0.951818529217199 0.075772159224367
   0.853723487458229 0.365152291140347 0.278801683251188
   0.354951897595262 0.287257669353690 0.099876794558573
   0.354398274841621 0.652586396033785 0.180558922376058
   0.852725848535856 0.090765968916565 0.424203616434715
   0.353876628280166 0.023822925433200 0.256596663002562
   0.855555805315031 0.580467699004934 0.012016388085271
   0.853245700155965 0.729915062293711 0.348450371818456
