Generated by rss_polymlp
1.0
   2.560009066388951 0.000000000000000 0.000000000000000
   0.000006358269341 6.354370002558215 0.000000000000000
   1.032255606443746 1.997205660772844 13.002059510905459
 Al  Cu  
 1  7  
Direct
   0.714634246888131 0.094867719913393 0.849170436764458
   0.778436850952926 0.888525644829438 0.690936694477665
   0.287290363443121 0.240182782671349 0.668972153100323
   0.183615422078740 0.369483506900304 0.926097624362236
   0.211114083303232 0.753387655021219 0.857898645577298
   0.315281860829561 0.625888933082970 0.599560084480796
   0.749464582586793 0.495510833996949 0.762785761732428
   0.343102443479064 0.013702370589053 0.530571721826667
