Generated by rss_polymlp
1.0
   2.609301908369173 0.000000000000000 0.000000000000000
   -0.000090004324531 10.033347757047473 0.000000000000000
   -0.024606517247776 -4.014941847823375 11.110472067119964
 Al  Z  
 5  0  
Direct
   0.024157821293497 0.875133647911571 0.790059164252677
   0.618414337472018 0.784998963281448 0.564810837033225
   0.421578175031156 0.666204459863642 0.861346914945751
   0.821272849931735 0.448128444926135 0.677433903931001
   0.220977404125682 0.519016777674537 0.493521644435442
