Generated by rss_polymlp
1.0
   2.722977959390475 0.000000000000000 0.000000000000000
   1.361488906995167 6.275845103864230 0.000000000000000
   0.396513657430575 1.607074415661472 11.688682168279676
 Al  Cu  
 5  1  
Direct
   0.828680266064690 0.269149729105060 0.941141140280527
   0.620108892268813 0.615838345385837 0.183055349843794
   0.495986516333608 0.964301023144229 0.838942779740281
   0.142679357212056 0.633579885198667 0.967139589908572
   0.310850438765183 0.241766924344900 0.157606326042057
   0.971871643860869 0.938179150563807 0.094239596314410
