Generated by rss_polymlp
1.0
   2.720384824771037 0.000000000000000 0.000000000000000
   -0.000000111129947 6.363918684618628 0.000000000000000
   -0.055428629376606 -2.192234498103272 12.882550665704333
 Al  Cu  
 5  3  
Direct
   0.755544013498805 0.971610557392745 0.048438258180421
   0.753214965608179 0.309299029566059 0.934130607874314
   0.246833311892965 0.610607903767365 0.620926807415092
   0.248968945064916 0.268348264029911 0.725740429421693
   0.251487984611250 0.938714081270994 0.849372894378052
   0.253968718368519 0.645073080345863 0.971123766108075
   0.748026632949131 0.938399763201523 0.679493454450064
   0.750429138397209 0.596855684336224 0.797405470582941
