Generated by rss_polymlp
1.0
   6.201559457619372 0.000000000000000 0.000000000000000
   0.000000000000000 2.924289721956073 0.000000000000000
   -0.879929936533072 0.000000000000000 6.513340132572123
 Al  Cu  
 5  3  
Direct
   0.997575591963926 0.000000000000000 0.055163702507941
   0.624204071495973 0.000000000000000 0.563977727223200
   0.197239419817653 0.000000000000000 0.435751064875419
   0.011269519979001 0.500000000000000 0.709269144032110
   0.431611817832947 0.500000000000000 0.174464032743514
   0.338227405597621 0.000000000000000 0.835476701660588
   0.682276027479895 0.500000000000000 0.902844818072108
   0.842255324064332 0.500000000000000 0.329777359170475
