Generated by rss_polymlp
1.0
   3.878457196578008 0.000000000000000 0.000000000000000
   0.000000000000000 11.127603627503365 0.000000000000000
   0.000000000000000 0.000000000000000 5.376873203163477
 Al  Cu  
 10  6  
Direct
   0.000000000000000 0.376247327371178 0.587837323274628
   0.500000000000000 0.000000000000000 0.377760877043915
   0.500000000000000 0.240645069469922 0.830010333847063
   0.500000000000000 0.259354930530078 0.330010333847063
   0.000000000000000 0.123752672628822 0.087837323274628
   0.000000000000000 0.876247327371178 0.087837323274628
   0.500000000000000 0.500000000000000 0.877760877043915
   0.500000000000000 0.740645069469922 0.330010333847063
   0.500000000000000 0.759354930530078 0.830010333847063
   0.000000000000000 0.623752672628822 0.587837323274628
   0.500000000000000 0.000000000000000 0.867363718560799
   0.000000000000000 0.126019235440619 0.586505096805475
   0.000000000000000 0.373980764559381 0.086505096805475
   0.500000000000000 0.500000000000000 0.367363718560799
   0.000000000000000 0.626019235440619 0.086505096805475
   0.000000000000000 0.873980764559381 0.586505096805475
