Generated by rss_polymlp
1.0
   0.914503773305926 0.000000000000000 0.000000000000000
   -0.298118143087598 4.002844177047047 0.000000000000000
   -0.278015604233870 -2.000061998363686 8.022193027648523
 Z  Cu  
 0  3  
Direct
   0.500000000000000 0.000000000000000 0.500000000000000
   0.259972596333391 0.566741783863984 0.633458175903894
   0.740027403666609 0.433258216136016 0.366541824096106
