Generated by rss_polymlp
1.0
   0.941409894493800 0.000000000000000 0.000000000000000
   0.000000000000000 3.508432647585386 0.000000000000000
   -0.293913399512132 0.000000000000000 4.846109918782671
 Z  Cu  
 0  3  
Direct
   0.094336447737135 0.500000000000000 0.773377669367698
   0.905663552262865 0.500000000000000 0.226622330632302
   0.000000000000000 0.000000000000000 0.500000000000000
