Generated by rss_polymlp
1.0
   0.980606443663171 0.000000000000000 0.000000000000000
   0.449403682643720 4.745147000054030 0.000000000000000
   0.216206691434896 2.356423651419679 5.808449278612562
 Z  Cu  
 0  4  
Direct
   0.756630200845671 0.899764218972751 0.136255151327458
   0.185613940742253 0.532562880126008 0.808741165405418
   0.014470604716412 0.931222399491217 0.799742783516020
   0.443502287750988 0.564021057170084 0.472228840493928
