Generated by rsspolymlp
1.0
   1.464739250908276 0.000000000000000 0.000000000000000
   -0.394361168588664 2.372644155567449 0.000000000000000
   0.477969663603740 0.139005392423462 3.801290583112788
Cu  
1  
Direct
   0.000000000000000 0.000000000000000 0.000000000000000
