Generated by rsspolymlp
1.0
   0.660170327607624 0.000000000000000 0.000000000000000
   0.254928730171018 6.247508630876225 0.000000000000000
   0.304666152908503 2.723537360255926 6.902824062738043
Cu  
1  
Direct
   0.000000000000000 0.000000000000000 0.000000000000000
