Generated by rsspolymlp
1.0
   2.458417175418318 0.000000000000000 0.000000000000000
   0.164637318710197 2.704088529679662 0.000000000000000
   0.771849998193349 0.440695634538242 5.553108076857223
Cu  
1  
Direct
   0.000000000000000 0.000000000000000 0.000000000000000
