Generated by rsspolymlp
1.0
   2.841161425978223 0.000000000000000 0.000000000000000
   1.396757103904323 3.567350968490345 0.000000000000000
   0.605659939798496 1.782756757037341 4.000067868815361
Cu  
1  
Direct
   0.000000000000000 0.000000000000000 0.000000000000000
