Generated by rsspolymlp
1.0
   0.833284093950764 0.000000000000000 0.000000000000000
   0.312572527476498 6.964575523990876 0.000000000000000
   0.058011164245659 2.237751450160190 6.608987731592534
Cu  
1  
Direct
   0.000000000000000 0.000000000000000 0.000000000000000
