Generated by rsspolymlp
1.0
   2.844875957444088 0.000000000000000 0.000000000000000
   -1.422437978722044 2.463734849762158 0.000000000000000
   0.000000000000000 0.000000000000000 21.306869109040388
 Al  
 9  
Direct
   0.000000000000000 0.000000000000000 0.222637634635929
   0.000000000000000 0.000000000000000 0.000000000000000
   0.666666666666667 0.333333333333333 0.110695698697404
   0.666666666666667 0.333333333333333 0.555970967969263
   0.666666666666667 0.333333333333333 0.333333333333333
   0.333333333333333 0.666666666666667 0.444029032030737
   0.333333333333333 0.666666666666667 0.889304301302596
   0.333333333333333 0.666666666666667 0.666666666666667
   0.000000000000000 0.000000000000000 0.777362365364071
