Generated by rss_polymlp
1.0
   2.798082652489088 0.000000000000000 0.000000000000000
   -0.000000410183553 2.798082891323635 0.000000000000000
   -0.725270274739158 -0.753752754655513 12.189853329770994
 Al  Z  
 3  0  
Direct
   0.545276962173293 0.047055028362233 0.174677579050161
   0.454723037826707 0.952944971637767 0.825322420949839
   0.000000000000000 0.500000000000000 0.000000000000000
