Generated by rsspolymlp
1.0
   2.824092098424221 0.000000000000000 0.000000000000000
   0.000000000000000 4.833933069745284 0.000000000000000
   0.000000000000000 0.000000000000000 7.644906038683875
 Al  
 6  
Direct
   0.000000000000000 0.000000000000000 0.184740160157552
   0.500000000000000 0.000000000000000 0.500000000000000
   0.000000000000000 0.000000000000000 0.815259839842448
   0.500000000000000 0.500000000000000 0.684740160157552
   0.000000000000000 0.500000000000000 0.000000000000000
   0.500000000000000 0.500000000000000 0.315259839842448
