Generated by rss_polymlp
1.0
   2.711252449507353 0.000000000000000 0.000000000000000
   -0.000005390857429 3.922926019632192 0.000000000000000
   -0.519097435787493 -1.120223068991643 10.954987777815985
 Al  Z  
 3  0  
Direct
   0.973220192090149 0.460058678468858 0.860129036286367
   0.026779807909851 0.539941321531142 0.139870963713633
   0.500000000000000 0.000000000000000 0.000000000000000
