Generated by rsspolymlp
1.0
   2.844875780261835 0.000000000000000 0.000000000000000
   -1.422437890130917 2.463734696317825 0.000000000000000
   0.000000000000000 0.000000000000000 21.306872143614434
 Al  
 9  
Direct
   0.666666666666667 0.333333333333333 0.055970968139074
   0.333333333333333 0.666666666666667 0.166666666666667
   0.000000000000000 0.000000000000000 0.277362365194260
   0.333333333333333 0.666666666666667 0.389304301472407
   -0.000000000000000 -0.000000000000000 0.500000000000000
   0.666666666666667 0.333333333333333 0.610695698527593
   0.000000000000000 0.000000000000000 0.722637634805740
   0.666666666666667 0.333333333333333 0.833333333333333
   0.333333333333333 0.666666666666667 0.944029031860926
