Generated by rsspolymlp
1.0
   3.495664376536286 0.000000000000000 0.000000000000000
   1.580640653117471 4.487647189295110 0.000000000000000
   1.159784085013762 0.950606425578415 8.513258540459145
Cu  
3  
Direct
   0.000000000000000 0.000000000000000 0.000000000000000
   0.357878902496890 0.151047891661333 0.741011833032079
   0.227999119293263 0.575189635107390 0.837793453183831
