Generated by rsspolymlp
1.0
   5.690739796193057 0.000000000000000 0.000000000000000
   -2.316563913879916 5.956285056233751 0.000000000000000
   2.217340174128470 1.101392171717946 7.481398668961280
Cu  
3  
Direct
   0.000000000000000 0.000000000000000 0.000000000000000
   0.551275615065408 0.084768118403871 0.774808953408221
   0.547231344164578 0.548043523155539 0.535292013046473
