Generated by rsspolymlp
1.0
   4.337830644187503 0.000000000000000 0.000000000000000
   0.595312405531234 6.905035388112541 0.000000000000000
   1.343185298505666 1.603873985589346 7.903486133139046
Cu  
3  
Direct
   0.000000000000000 0.000000000000000 0.000000000000000
   0.458351148950156 0.415716176080636 0.475603974288135
   0.007666194061741 0.280814084183883 0.571355529130479
