Generated by rsspolymlp
1.0
   3.785270618385186 0.000000000000000 0.000000000000000
   -0.998238030369675 5.643550093130743 0.000000000000000
   0.440498936823834 1.075083776989009 9.202044868730892
Cu  
3  
Direct
   0.000000000000000 0.000000000000000 0.000000000000000
   0.529168450700525 0.778003389621141 0.652891716083101
   0.627182333920284 0.886344038255872 0.478676487606549
