Generated by rsspolymlp
1.0
   2.517482979114287 0.000000000000000 0.000000000000000
   -0.952193498101813 8.924383758683444 0.000000000000000
   0.599313487693524 2.338167346083004 10.533941452574917
Cu  
3  
Direct
   0.000000000000000 0.000000000000000 0.000000000000000
   0.413906592798746 0.969699054602639 0.509886084298616
   0.761786451175337 0.946579494464438 0.541288552981277
