Generated by rsspolymlp
1.0
   2.247162990083446 0.000000000000000 0.000000000000000
   0.138260613749456 5.649179618225718 0.000000000000000
   0.902557464969556 1.102546376489060 9.285906958442308
Cu  
3  
Direct
   0.000000000000000 0.000000000000000 0.000000000000000
   0.519978099902101 0.083091206491827 0.564812873342418
   0.233191201698299 0.660015184383823 0.330331416552865
