Generated by rsspolymlp
1.0
   3.453772990555721 0.000000000000000 0.000000000000000
   -1.601591189442065 8.776154018816383 0.000000000000000
   0.739775670327328 2.190269145879882 9.642165157042442
Cu  
3  
Direct
   0.000000000000000 0.000000000000000 0.000000000000000
   0.490456617345573 0.066895630079631 0.224077265986770
   0.547480904164982 0.926539537392918 0.609811753789154
