Generated by rsspolymlp
1.0
   1.710931189822165 0.000000000000000 0.000000000000000
   -0.495095331364000 4.362939303044960 0.000000000000000
   0.373653246659298 0.108536297935241 8.444624846798721
Al  Cu  
1  1  
Direct
   0.000000000000000 0.000000000000000 0.000000000000000
   0.599785495518462 0.017936656750476 0.102268232490199
