Generated by rsspolymlp
1.0
   1.621006701719845 0.000000000000000 0.000000000000000
   -0.183884298763675 5.447267053001203 0.000000000000000
   0.257362674584909 1.819164658674399 9.371717461833454
Al  Cu  
1  1  
Direct
   0.000000000000000 0.000000000000000 0.000000000000000
   0.257346563403512 0.838645936129136 0.376894242920321
