Generated by rsspolymlp
1.0
   2.065389222878912 0.000000000000000 0.000000000000000
   0.018985281051839 8.313486733511617 0.000000000000000
   0.064398763437051 3.276505254272422 8.150611367750034
Al  Cu  
1  1  
Direct
   0.000000000000000 0.000000000000000 0.000000000000000
   0.532712118932058 0.948388728017468 0.642504133419671
